LAMMPS (30 Mar 2026)
OMP_NUM_THREADS environment is not set. Defaulting to 1 thread.
  using 1 OpenMP thread(s) per MPI task

# ------------------ Initialization ------------------
units           metal
boundary        p p p
atom_style      atomic

# ------------------ Geometry Generation -------------
# Silicon diamond cubic lattice constant is 5.431 Angstroms

variable pwd_path getenv PWD

variable structure_file string ../structures/si_structure.txt

variable first_run_step equal ${steps}
variable first_run_step equal 50000

read_data ../structures/si_structure.txt
Reading data file ...
  orthogonal box = (0 0 0) to (16.29 16.29 16.29)
  1 by 1 by 1 MPI processor grid
  reading atoms ...
  216 atoms
  read_data CPU = 0.002 seconds

# ------------------ Interatomic Potential -----------------
# Using the standard Stillinger-Weber (SW) potential
pair_style      sw
pair_coeff      * * ../potentials/Si.sw Si
Reading sw potential file ../potentials/Si.sw with DATE: 2007-06-11


# ------------------ Compute -----------------
compute eng all pe/atom
compute eatoms all reduce sum c_eng
compute new all temp


# ------------------ Energy Minimization -------------
# Relax the structure to remove any initial overlapping/strain
thermo          10
thermo_style    custom step temp pe press vol

minimize 1.0e-6 1.0e-6 5000 10000
Neighbor list info ...
  update: every = 1 steps, delay = 0 steps, check = yes
  max neighbors/atom: 2000, page size: 100000
  master list distance cutoff = 5.77118
  ghost atom cutoff = 5.77118
  binsize = 2.88559, bins = 6 6 6
  1 neighbor lists, perpetual/occasional/extra = 1 0 0
  (1) pair sw, perpetual
      attributes: full, newton on
      pair build: full/bin/atomonly
      stencil: full/bin/3d
      bin: standard
Per MPI rank memory allocation (min/avg/max) = 4.343 | 4.343 | 4.343 Mbytes
   Step          Temp          PotEng         Press          Volume    
         0   0             -936.70522      532.56802      4322.7812    
         1   0             -936.70522      532.56802      4322.7812    
Loop time of 0.00071732 on 1 procs for 1 steps with 216 atoms

0.0% CPU use with 1 MPI tasks x 1 OpenMP threads

Minimization stats:
  Stopping criterion = quadratic factors are zero
  Energy initial, next-to-last, final = 
     -936.705223045316  -936.705223045316  -936.705223045316
  Force two-norm initial, final = 1.1685261e-17 1.1685261e-17
  Force max component initial, final = 8.6736205e-19 8.6736205e-19
  Final line search alpha, max atom move = 1 8.6736205e-19
  Iterations, force evaluations = 1 2

MPI task timing breakdown:
Section |  min time  |  avg time  |  max time  |%varavg| %total
---------------------------------------------------------------
Pair    | 0.00067151 | 0.00067151 | 0.00067151 |   0.0 | 93.61
Neigh   | 0          | 0          | 0          |   0.0 |  0.00
Comm    | 1.7863e-05 | 1.7863e-05 | 1.7863e-05 |   0.0 |  2.49
Output  | 0          | 0          | 0          |   0.0 |  0.00
Modify  | 0          | 0          | 0          |   0.0 |  0.00
Other   |            | 2.794e-05  |            |       |  3.90

Nlocal:            216 ave         216 max         216 min
Histogram: 1 0 0 0 0 0 0 0 0 0
Nghost:            950 ave         950 max         950 min
Histogram: 1 0 0 0 0 0 0 0 0 0
Neighs:              0 ave           0 max           0 min
Histogram: 1 0 0 0 0 0 0 0 0 0
FullNghs:         7344 ave        7344 max        7344 min
Histogram: 1 0 0 0 0 0 0 0 0 0

Total # of neighbors = 7344
Ave neighs/atom = 34
Neighbor list builds = 0
Dangerous builds = 0

# ------------------ Equilibration (NVT/NPT) ---------
reset_timestep  0
velocity all create ${temperature} 87287 loop geom
velocity all create 300 87287 loop geom

# ---------- Timestamp Details ----------
# Reference timestep for metal units with Silicon is typically 1-2 fs
timestep        0.001



# ---------- NPT Fix ----------

# Tdamp - 100*Timestep
# Pdamp - 1000*Timestep

fix 1 all npt temp ${temperature} ${temperature} 0.1 iso ${pressure} ${pressure} 1.0
fix 1 all npt temp 300 ${temperature} 0.1 iso ${pressure} ${pressure} 1.0
fix 1 all npt temp 300 300 0.1 iso ${pressure} ${pressure} 1.0
fix 1 all npt temp 300 300 0.1 iso 0.0 ${pressure} 1.0
fix 1 all npt temp 300 300 0.1 iso 0.0 0.0 1.0

# ---------- Dump Details ----------
variable dump_path string "../results/lattice_parameter/si_out_${temperature}.dat"
../results/lattice_parameter/si_out_300.dat

dump 1 all custom 5000 ${dump_path} mass type xs ys zs
dump 1 all custom 5000 ../results/lattice_parameter/si_out_300.dat mass type xs ys zs

dump_modify 1 sort id

# ---------- Equilibration ----------
run ${first_run_step}
run 50000
Per MPI rank memory allocation (min/avg/max) = 3.218 | 3.218 | 3.218 Mbytes
   Step          Temp          PotEng         Press          Volume    
         0   300           -936.70522      2592.6296      4322.7812    
        10   162.14491     -932.86171      2709.6575      4323.6037    
        20   94.32248      -930.9527       1934.8386      4326.0702    
        30   184.98823     -933.39207      352.26883      4329.7024    
        40   115.43023     -931.32276     -465.70059      4333.6113    
        50   89.165155     -930.50881     -1164.535       4337.2393    
        60   193.84593     -933.28463     -2032.3712      4340.1266    
        70   150.74016     -931.93673     -2017.0988      4341.7957    
        80   134.07887     -931.37891     -1833.5936      4342.2063    
        90   213.45771     -933.45577     -1830.2836      4341.4513    
       100   163.69113     -931.92078     -1199.3526      4339.5878    
       110   144.7327      -931.2762      -591.90156      4336.9698    
       120   204.86102     -932.78601     -182.43867      4333.968     
       130   156.15079     -931.25253      795.34435      4330.8913    
       140   151.43728     -930.97937      1554.7903      4328.3017    
       150   225.07403     -932.83338      1720.5462      4326.6507    
       160   184.80105     -931.50553      2077.4363      4326.0938    
       170   168.98406     -930.90619      2127.5035      4326.8219    
       180   232.2544      -932.46963      1531.2419      4328.8473    
       190   196.30516     -931.25905      1008.4778      4331.8485    
       200   170.6949      -930.37986      230.47235      4335.4792    
       210   229.00735     -931.80259     -1015.2576      4339.2378    
       220   211.41629     -931.08715     -1785.0758      4342.3997    
       230   174.21364     -929.86817     -2100.3678      4344.4735    
       240   207.49062     -930.60277     -2396.3769      4345.2273    
       250   203.79417     -930.28641     -2126.0435      4344.5072    
       260   187.75751     -929.64694     -1310.4171      4342.48      
       270   243.05668     -930.97089     -550.29966      4339.6223    
       280   266.45289     -931.36853      281.35101      4336.4232    
       290   219.09496     -929.83085      1188.7254      4333.408     
       300   237.73458     -930.14724      1586.0409      4331.1077    
       310   263.24979     -930.6259       1746.8225      4329.7903    
       320   231.34072     -929.52114      1851.3836      4329.5689    
       330   231.8277      -929.33623      1567.3123      4330.4886    
       340   249.94529     -929.62445      1204.2585      4332.3944    
       350   240.9978      -929.15897      961.02535      4335.0769    
       360   286.37034     -930.19679      284.48117      4338.3517    
       370   319.12937     -930.85965     -596.91723      4341.8116    
       380   252.36709     -928.79316     -1170.0643      4344.9341    
       390   235.28489     -928.14573     -1802.1432      4347.3292    
       400   277.6961      -929.1248      -2330.0454      4348.603     
       410   268.94244     -928.66976     -2274.0683      4348.4473    
       420   263.06262     -928.31098     -1909.851       4346.8739    
       430   275.13988     -928.44745     -1262.9225      4344.1081    
       440   262.59162     -927.89983     -165.27584      4340.5708    
       450   308.92992     -928.98316      744.79635      4336.9112    
       460   324.60921     -929.20035      1553.7253      4333.7101    
       470   262.99597     -927.30782      2398.7116      4331.4854    
       480   304.25047     -928.28939      2665.8952      4330.7304    
       490   358.85666     -929.61959      2472.2566      4331.6261    
       500   304.15768     -927.94632      2055.2399      4334.0771    
       510   333.0376      -928.62733      861.1687       4337.7931    
       520   358.07082     -929.20406     -471.46001      4342.0693    
       530   241.04736     -925.86476     -1177.0251      4346.1166    
       540   265.77811     -926.47062     -2018.7368      4349.4344    
       550   375.37572     -929.39436     -2667.1984      4351.5045    
       560   290.24308     -926.92572     -2276.4625      4351.9642    
       570   272.82481     -926.36867     -1911.2361      4350.9854    
       580   397.68867     -929.74866     -1822.4067      4348.7765    
       590   322.96366     -927.61054     -777.8177       4345.4715    
       600   247.86376     -925.48983      386.41831      4341.6736    
       610   361.97309     -928.61523      836.26467      4338.0635    
       620   353.17058     -928.33529      1571.624       4334.9918    
       630   284.18295     -926.4124       2308.8317      4332.9027    
       640   343.57929     -928.06735      2297.223       4332.2139    
       650   338.99565     -927.96378      2119.8965      4332.9668    
       660   305.02997     -927.06277      1687.3248      4335.0499    
       670   343.9882      -928.20363      925.24503      4338.1946    
       680   331.57602     -927.93771      261.59515      4341.9598    
       690   341.03715     -928.29752     -780.08946      4345.9006    
       700   352.2768      -928.74374     -2029.8377      4349.3673    
       710   232.65643     -925.53917     -2492.0516      4351.6272    
       720   250.75107     -926.11388     -2762.6702      4352.3334    
       730   373.24809     -929.60772     -2757.9593      4351.3085    
       740   309.15224     -927.94942     -1677.8596      4348.5994    
       750   260.75509     -926.70191     -443.45624      4344.8251    
       760   368.33099     -929.79741      262.93475      4340.7197    
       770   354.57127     -929.5684       1237.1311      4336.7815    
       780   272.35863     -927.4275       2119.506       4333.6017    
       790   293.75843     -928.14724      2163.8298      4331.6901    
       800   284.41388     -928.00743      2020.758       4331.1245    
       810   278.82498     -927.95431      1787.48        4331.8268    
       820   314.84861     -929.06017      1291.4202      4333.6482    
       830   279.52206     -928.18083      836.07705      4336.3088    
       840   260.44395     -927.73051      159.02738      4339.5118    
       850   293.07725     -928.70329     -678.52842      4342.8387    
       860   292.98891     -928.76139     -1230.0812      4345.7892    
       870   290.8196      -928.75619     -1669.8847      4347.9983    
       880   304.34233     -929.18784     -2005.7847      4349.1775    
       890   283.94309     -928.67462     -1817.3976      4349.1324    
       900   292.58741     -928.96269     -1459.249       4347.9482    
       910   322.49836     -929.84496     -1184.1466      4345.8287    
       920   304.67127     -929.41039     -693.93353      4342.9607    
       930   267.9301      -928.44483     -55.113346      4339.6437    
       940   248.34131     -927.9368       473.08571      4336.2607    
       950   230.49348     -927.44867      1093.9905      4333.1579    
       960   252.67631     -928.04477      1744.3573      4330.7209    
       970   291.02957     -929.06462      2300.151       4329.3588    
       980   299.00834     -929.2303       2622.3559      4329.4227    
       990   287.76727     -928.86244      2473.7488      4331.1193    
      1000   312.28498     -929.48699      1552.0292      4334.3541    
      1010   296.70312     -928.99494      386.31515      4338.6009    
      1020   267.30223     -928.11866     -773.73795      4343.1487    
      1030   297.84383     -928.89444     -1844.5813      4347.2697    
      1040   311.88495     -929.20035     -2400.8299      4350.3031    
      1050   266.49195     -927.86075     -2396.7897      4351.8854    
      1060   301.9383      -928.76618     -2440.4886      4351.9617    
      1070   332.25847     -929.5185      -2274.0219      4350.5039    
      1080   262.68928     -927.51022     -1543.0662      4347.6248    
      1090   276.3345      -927.81603     -828.53575      4343.7359    
      1100   330.3726      -929.2204      -29.572228      4339.2871    
      1110   264.94716     -927.30685      1236.0431      4334.8037    
      1120   259.22822     -927.05818      2249.1345      4331.0384    
      1130   344.13518     -929.29864      2696.3089      4328.6179    
      1140   331.15525     -928.82335      2993.0207      4327.8664    
      1150   278.57053     -927.28283      2831.2432      4328.9701    
      1160   273.28257     -927.06206      2125.3198      4331.849     
      1170   305.9563      -927.88034      1200.8776      4336.1052    
      1180   352.6993      -929.08147      227.45762      4341.1883    
      1190   345.10098     -928.79198     -808.8492       4346.4966    
      1200   316.59766     -927.9502      -2033.7278      4351.368     
      1210   319.62026     -928           -3160.4139      4355.0284    
      1220   271.48482     -926.63455     -3528.2272      4356.7793    
      1230   287.14367     -927.04003     -3460.9693      4356.3309    
      1240   367.66628     -929.2456      -2960.6233      4353.6955    
      1250   338.67524     -928.4362      -1683.8537      4349.1871    
      1260   291.37549     -927.13547     -151.44824      4343.565     
      1270   355.38625     -928.93507      1030.3104      4337.7499    
      1280   325.60866     -928.14964      2223.3387      4332.5147    
      1290   258.17877     -926.31776      3027.1455      4328.5916    
      1300   291.57007     -927.27947      3114.3076      4326.4809    
      1310   292.03473     -927.32166      3033.7533      4326.2989    
      1320   293.39293     -927.38871      2693.5571      4328.0165    
      1330   313.24482     -927.97302      2078.8825      4331.4537    
      1340   298.28774     -927.59192      1303.2942      4336.2656    
      1350   338.98669     -928.7623       35.235653      4341.9681    
      1360   364.40191     -929.53657     -1256.6389      4347.8034    
      1370   290.46115     -927.5654      -2058.2452      4352.9858    
      1380   328.96081     -928.71885     -3167.5943      4356.9349    
      1390   377.95209     -930.2084      -4096.8427      4358.946     
      1400   264.1146      -927.1889      -3898.7477      4358.4467    
      1410   250.77969     -926.91758     -3410.2319      4355.463     
      1420   347.07416     -929.70446     -2771.0262      4350.2573    
      1430   264.76821     -927.52922     -974.91268      4343.2744    
      1440   221.86646     -926.39749      954.01788      4335.5635    
      1450   308.89725     -928.85127      2399.3696      4328.3012    
      1460   302.16137     -928.69519      3942.5048      4322.4431    
      1470   263.46254     -927.64463      5138.7466      4318.9515    
      1480   311.42707     -929.00407      5238.4108      4318.568     
      1490   308.50107     -928.96073      4637.6869      4321.4434    
      1500   294.70017     -928.62339      3218.2074      4327.2608    
      1510   317.4806      -929.30378      1069.5874      4335.198     
      1520   273.07674     -928.10827     -891.3652       4344.0029    
      1530   244.09606     -927.31315     -2633.8132      4352.4459    
      1540   328.68114     -929.65415     -4351.8149      4359.386     
      1550   351.44762     -930.29113     -5232.7182      4363.7351    
      1560   287.16992     -928.53883     -5231.81        4364.8694    
      1570   284.94082     -928.51996     -4966.3201      4362.6822    
      1580   291.22336     -928.7395      -4024.6839      4357.3132    
      1590   263.2245      -927.99829     -2310.1122      4349.3213    
      1600   257.33438     -927.84711     -384.29077      4339.7301    
      1610   273.42976     -928.27645      1719.744       4329.7421    
      1620   253.08126     -927.66205      4110.8041      4320.6913    
      1630   252.0277      -927.55969      5981.9852      4314.0422    
      1640   292.916       -928.60316      6879.1281      4310.9753    
      1650   317.52851     -929.19197      6937.9852      4312.1227    
      1660   329.28977     -929.44406      5936.5424      4317.5955    
      1670   341.04523     -929.71717      3775.2848      4326.8631    
      1680   334.05287     -929.48136      878.76766      4338.6876    
      1690   311.63473     -928.81585     -2408.0162      4351.3138    
      1700   280.58985     -927.8977      -5483.1231      4362.6875    
      1710   235.80008     -926.58419     -7459.5858      4370.842     
      1720   243.79108     -926.73082     -8173.0412      4374.4266    
      1730   303.30931     -928.29901     -7638.9836      4372.8803    
      1740   309.1193      -928.37529     -5620.0705      4366.48      
      1750   319.93317     -928.59846     -2940.1617      4356.4117    
      1760   383.18187     -930.27538     -434.02692      4344.3051    
      1770   339.61374     -929.00587      2250.7604      4331.7659    
      1780   235.47566     -926.06185      4806.9045      4320.4719    
      1790   284.11631     -927.34855      6265.2745      4311.9743    
      1800   295.15688     -927.57743      7303.2795      4307.2563    
      1810   232.05491     -925.76182      7952.9019      4307.0132    
      1820   329.64154     -928.41689      7075.0374      4311.6535    
      1830   410.53611     -930.60778      5029.9863      4320.7535    
      1840   308.49284     -927.766        2487.8311      4333.175     
      1850   303.54473     -927.62578     -1013.9452      4347.3524    
      1860   352.45215     -928.95743     -4536.085       4361.1478    
      1870   296.57877     -927.37809     -7030.6302      4372.3436    
      1880   287.3332      -927.10454     -8727.5833      4379.2429    
      1890   313.35001     -927.83448     -9225.6943      4380.6879    
      1900   294.38663     -927.34616     -8072.6718      4376.3045    
      1910   325.84007     -928.28272     -5830.1289      4366.7381    
      1920   324.01652     -928.30378     -2691.7354      4353.3915    
      1930   288.13745     -927.35873      879.94634      4338.2349    
      1940   334.71484     -928.68478      4139.8139      4323.4865    
      1950   316.82018     -928.22454      7074.7641      4311.2013    
      1960   268.44907     -926.92159      9048.9972      4303.1775    
      1970   325.7057      -928.59303      9295.4808      4300.61      
      1980   286.09658     -927.6302       8503.1922      4303.7432    
      1990   230.42182     -926.21965      6697.4005      4312.1608    
      2000   341.53195     -929.45796      3515.1345      4324.7991    
      2010   340.90035     -929.62726      136.42341      4339.8125    
      2020   253.93815     -927.36185     -2980.933       4355.1259    
      2030   312.63251     -929.11252     -6095.4354      4368.7208    
      2040   340.42813     -930.03384     -8429.7247      4378.6057    
      2050   294.56548     -928.91771     -9657.4603      4383.2309    
      2060   291.75692     -929.00063     -9781.2663      4381.7397    
      2070   252.20511     -928.05482     -8293.6022      4374.0477    
      2080   217.53475     -927.19853     -5412.8364      4361.0897    
      2090   253.20393     -928.24196     -1657.0656      4344.6938    
      2100   255.42348     -928.28629      2771.8171      4327.2634    
      2110   289.09421     -929.14742      6802.9153      4311.5319    
      2120   356.38551     -930.93228      9586.3135      4299.9486    
      2130   284.57303     -928.8926       11170.936      4294.2207    
      2140   247.24226     -927.85369      10782.467      4295.2681    
      2150   311.26215     -929.65497      8474.9172      4302.8808    
      2160   273.92074     -928.64178      5486.0525      4315.7668    
      2170   257.85022     -928.1985       1829.5655      4332.1222    
      2180   306.8306      -929.50679     -2339.5472      4349.6936    
      2190   276.07057     -928.55186     -6001.7043      4365.9005    
      2200   261.60392     -928.03381     -8886.8813      4378.3795    
      2210   294.85266     -928.84155     -10624.068      4385.2532    
      2220   253.13375     -927.59675     -10500.545      4385.4198    
      2230   258.12703     -927.6858      -8888.0904      4378.9375    
      2240   342.15629     -929.96113     -6166.8723      4366.8569    
      2250   304.99007     -928.8582      -2170.7143      4350.9928    
      2260   265.07426     -927.66621      1986.9232      4333.8681    
      2270   350.27494     -929.90868      5285.7927      4318.0565    
      2280   338.77267     -929.46018      8134.0458      4305.6247    
      2290   242.3504      -926.69299      9968.0318      4298.2493    
      2300   262.19606     -927.18578      10018.751      4296.9583    
      2310   319.94185     -928.74261      8815.4057      4301.7795    
      2320   292.83474     -927.96526      6773.9911      4311.9932    
      2330   296.23181     -928.04237      3426.8485      4326.3194    
      2340   314.93818     -928.5128      -596.42021      4342.7233    
      2350   285.58347     -927.6158      -4257.0431      4358.7317    
      2360   286.07549     -927.5278      -7232.2618      4372.0222    
      2370   329.49251     -928.63047     -9191.4843      4380.6974    
      2380   317.53424     -928.23191     -9675.2564      4383.5354    
      2390   291.78522     -927.50101     -8878.7512      4380.2455    
      2400   296.42218     -927.63949     -6850.9733      4371.4016    
      2410   321.9371      -928.35673     -3790.0444      4358.3694    
      2420   340.16954     -928.85788     -249.44883      4343.138     
      2430   337.9711      -928.78289      3209.9309      4327.9503    
      2440   299.96004     -927.70534      6277.8883      4314.9511    
      2450   308.1217      -927.91316      8260.8008      4305.9517    
      2460   318.70919     -928.21577      8992.485       4302.0895    
      2470   268.94717     -926.8726       8624.3323      4303.7499    
      2480   274.78268     -927.08553      6824.6565      4310.6305    
      2490   330.6035      -928.68742      3997.219       4321.6113    
      2500   288.27727     -927.55232      1132.6495      4334.9839    
      2510   268.9092      -927.02614     -1839.6812      4348.9397    
      2520   346.4327      -929.16611     -4821.3455      4361.603     
      2530   338.02488     -928.9337      -6856.979       4371.1426    
      2540   253.66658     -926.61248     -7735.2516      4376.2928    
      2550   305.17149     -928.08464     -7970.0447      4376.4991    
      2560   354.42344     -929.53872     -7059.6529      4371.713     
      2570   301.1274      -928.18806     -4895.7465      4362.6073    
      2580   300.50881     -928.30981     -2274.8589      4350.5925    
      2590   331.61639     -929.33226      551.23488      4337.3735    
      2600   283.47805     -928.15381      3567.5614      4324.7513    
      2610   261.15972     -927.6608       5989.0592      4314.5354    
      2620   279.99903     -928.30494      7407.3777      4308.1411    
      2630   273.12973     -928.2376       7801.2615      4306.3593    
      2640   282.45457     -928.62044      7031.0153      4309.3434    
      2650   294.32941     -929.07644      5316.7139      4316.5693    
      2660   270.2582      -928.51158      2992.8177      4326.9571    
      2670   281.8495      -928.90189      122.34326      4339.0377    
      2680   288.18407     -929.11065     -2710.373       4351.0371    
      2690   276.51115     -928.79038     -5124.7018      4361.1918    
      2700   284.31031     -928.99943     -6877.4494      4368.0021    
      2710   251.83545     -928.08997     -7295.9182      4370.4371    
      2720   233.23952     -927.56374     -6431.0784      4368.2952    
      2730   325.76017     -930.11587     -4986.9064      4362.1649    
      2740   354.93547     -930.91016     -2851.1923      4353.0551    
      2750   273.66255     -928.64793     -226.50544      4342.3713    
      2760   277.15053     -928.72589      1928.9732      4331.7337    
      2770   281.08012     -928.79239      3750.1405      4322.4923    
      2780   237.49728     -927.52411      5316.5186      4315.7432    
      2790   282.15771     -928.69821      6039.5671      4312.3549    
      2800   305.56816     -929.27466      6100.7417      4312.7171    
      2810   268.53986     -928.18821      5444.0039      4316.8007    
      2820   299.9527      -929.0089       3674.7229      4324.1225    
      2830   295.01938     -928.80729      1394.535       4333.5861    
      2840   229.73144     -926.9223      -952.2712       4343.7761    
      2850   282.17003     -928.28492     -3432.9179      4353.2042    
      2860   319.72585     -929.20443     -5044.4184      4360.3798    
      2870   268.51212     -927.68062     -5431.6231      4364.3364    
      2880   301.25721     -928.51256     -5421.1204      4364.8244    
      2890   344.81454     -929.65678     -4867.8529      4361.9218    
      2900   302.26468     -928.44139     -3397.6994      4356.0677    
      2910   286.87323     -927.99367     -1494.4803      4348.2203    
      2920   326.77818     -929.0754       432.33403      4339.5941    
      2930   332.68343     -929.21503      2312.8444      4331.4081    
      2940   320.48649     -928.86714      3745.0278      4324.7946    
      2950   290.26122     -928.0288       4557.4847      4320.5943    
      2960   265.10564     -927.33051      4648.8395      4319.2525    
      2970   278.37269     -927.69541      3967.5182      4320.7678    
      2980   249.38862     -926.87628      2992.1854      4324.7041    
      2990   219.70565     -926.01997      1833.6303      4330.43      
      3000   295.45655     -928.0615       466.73215      4337.203     
      3010   369.83546     -930.03897     -726.63519      4344.184     
      3020   334.14059     -928.9867      -1652.4274      4350.6338    
      3030   325.17406     -928.70721     -2836.3546      4355.9444    
      3040   367.14259     -929.86666     -3993.0594      4359.3995    
      3050   308.17039     -928.25487     -4295.4685      4360.3453    
      3060   253.17186     -926.75713     -4036.3195      4358.6069    
      3070   305.50028     -928.23483     -3456.8022      4354.3743    
      3080   306.97098     -928.29698     -2033.9955      4348.0914    
      3090   277.45689     -927.49128     -127.58105      4340.667     
      3100   322.18494     -928.7374       1616.2294      4333.2766    
      3110   330.68329     -928.98187      3105.373       4327.0007    
      3120   264.36664     -927.15327      4160.9613      4322.7323    
      3130   271.03129     -927.3463       4357.4662      4321.0605    
      3140   310.22493     -928.43808      4018.6775      4322.0885    
      3150   304.24494     -928.28061      3320.5668      4325.5819    
      3160   287.52755     -927.82868      2225.9998      4331.0808    
      3170   294.02613     -928.01382      801.30058      4337.8932    
      3180   328.84132     -928.97769     -977.57574      4345.1178    
      3190   335.51624     -929.16934     -2677.7994      4351.66      
      3200   274.0107      -927.47736     -3650.879       4356.496     
      3210   283.62351     -927.76145     -4223.0413      4359.0026    
      3220   322.36687     -928.86243     -4264.7616      4358.85      
      3230   289.04999     -927.97594     -3375.45        4356.0697    
      3240   303.40981     -928.42095     -2207.869       4351.2171    
      3250   362.38844     -930.13118     -1124.8482      4345.0339    
      3260   298.47031     -928.46231      349.90819      4338.2524    
      3270   228.64046     -926.61136      1761.1046      4331.7734    
      3280   267.29655     -927.75764      2656.244       4326.4398    
      3290   286.52506     -928.36473      3611.472       4322.8275    
      3300   277.58818     -928.18823      4400.6553      4321.4941    
      3310   323.03655     -929.53638      4186.5074      4322.8536    
      3320   324.64626     -929.6961       3250.5052      4326.7717    
      3330   269.12498     -928.26822      1886.2783      4332.6687    
      3340   277.82602     -928.6041      -59.253266      4339.6719    
      3350   287.08716     -928.94252     -1918.016       4346.5981    
      3360   243.27402     -927.78168     -3121.588       4352.313     
      3370   261.94083     -928.33281     -3968.8187      4356.0408    
      3380   307.72233     -929.63267     -4241.855       4357.2712    
      3390   275.67768     -928.77187     -3642.1289      4355.8701    
      3400   275.32413     -928.78503     -2743.5121      4352.2022    
      3410   322.4143      -930.11119     -1584.6318      4346.8557    
      3420   295.7882      -929.38918      51.246394      4340.5942    
      3430   270.0841      -928.68386      1414.7224      4334.4076    
      3440   298.73373     -929.47838      2204.5907      4329.1273    
      3450   258.03402     -928.33625      2995.7084      4325.2713    
      3460   226.22142     -927.42527      3404.7273      4323.2929    
      3470   279.73439     -928.85977      3128.0965      4323.4091    
      3480   258.41753     -928.187        2956.5435      4325.4872    
      3490   249.05582     -927.8349       2512.164       4329.388     
      3500   339.46492     -930.21431      1328.4789      4334.8018    
      3510   347.15332     -930.27352      95.507128      4341.0319    
      3520   284.45972     -928.41375     -1197.2056      4347.3031    
      3530   298.52553     -928.69807     -2922.4478      4352.7731    
      3540   276.61014     -927.97784     -4096.3694      4356.4139    
      3550   253.53016     -927.2377      -4383.0455      4357.5035    
      3560   303.65675     -928.52845     -4042.2527      4355.8523    
      3570   292.0969      -928.1071      -2769.9977      4351.7136    
      3580   262.44675     -927.20007     -988.02337      4345.8869    
      3590   351.07028     -929.57549      395.07283      4339.4508    
      3600   359.56733     -929.74005      1839.5735      4333.3116    
      3610   272.94554     -927.29736      3179.2462      4328.3611    
      3620   319.8042      -928.57395      3423.6687      4325.3603    
      3630   332.07446     -928.90191      3323.7701      4324.4962    
      3640   214.42156     -925.62755      3371.6111      4325.7263    
      3650   251.72902     -926.64444      2606.3172      4329.0135    
      3660   374.14545     -929.99998      1315.0723      4333.8958    
      3670   318.43611     -928.42574      467.38118      4339.6287    
      3680   272.0692      -927.12677     -674.08456      4345.6333    
      3690   354.90221     -929.41288     -2320.1442      4351.1754    
      3700   346.55556     -929.18436     -3299.45        4355.2888    
      3710   282.82701     -927.43888     -3683.0283      4357.3451    
      3720   297.66071     -927.87888     -3930.705       4357.0743    
      3730   297.73792     -927.91147     -3546.5899      4354.3583    
      3740   259.724       -926.88032     -2375.7165      4349.4606    
      3750   270.32197     -927.18183     -854.75938      4343.1057    
      3760   310.32994     -928.27934      882.56522      4336.2571    
      3770   335.64573     -928.96541      2578.6839      4329.9924    
      3780   325.06345     -928.66845      3952.4689      4325.3533    
      3790   328.40673     -928.78057      4595.6703      4323.1614    
      3800   333.45389     -928.96753      4369.0876      4323.8003    
      3810   314.55233     -928.51563      3354.4879      4327.1281    
      3820   288.95155     -927.88348      1771.6443      4332.5251    
      3830   299.7297      -928.25864     -138.8928       4339.0143    
      3840   280.24211     -927.78644     -1722.1799      4345.4368    
      3850   246.013       -926.88494     -2713.1207      4350.8063    
      3860   272.75033     -927.65979     -3263.8472      4354.4851    
      3870   319.45248     -928.98892     -3568.155       4356.1125    
      3880   318.23419     -929.00479     -3572.0287      4355.5007    
      3890   282.13017     -928.06581     -3023.5523      4352.6671    
      3900   259.6682      -927.49842     -1918.8522      4347.9671    
      3910   290.46534     -928.39896     -545.37646      4342.0895    
      3920   323.44771     -929.36097      1003.8515      4335.9017    
      3930   318.82074     -929.29294      2563.5978      4330.3696    
      3940   325.1275      -929.55261      3553.1579      4326.4308    
      3950   326.4481      -929.71518      3741.5114      4324.6816    
      3960   260.35779     -928.02016      3402.3746      4325.2508    
      3970   239.31979     -927.55367      2459.7979      4327.9158    
      3980   275.09696     -928.65734      1197.8293      4332.1043    
      3990   265.06016     -928.47712      181.18718      4337.0633    
      4000   269.08099     -928.66818     -745.2127       4342.1457    
      4010   290.7957      -929.343       -1728.4059      4346.7589    
      4020   267.27022     -928.74883     -2496.6135      4350.3005    
      4030   269.72133     -928.86307     -3109.816       4352.2753    
      4040   276.92233     -929.10027     -3284.8979      4352.312     
      4050   254.49513     -928.50243     -2757.6721      4350.3169    
      4060   265.67872     -928.82083     -1751.4145      4346.6144    
      4070   301.83763     -929.81627     -547.60984      4341.8289    
      4080   287.97503     -929.41127      768.64552      4336.7208    
      4090   273.08572     -928.9686       1855.4067      4332.0965    
      4100   286.25121     -929.28994      2606.5365      4328.6289    
      4110   293.46501     -929.43155      2990.485       4326.782     
      4120   283.5634      -929.08861      2866.5809      4326.7835    
      4130   266.26568     -928.52722      2369.5347      4328.5624    
      4140   269.10686     -928.50142      1680.3248      4331.8204    
      4150   288.31443     -928.89315      763.2089       4336.1264    
      4160   280.02319     -928.49191     -299.80581      4340.9133    
      4170   278.54549     -928.26938     -1420.6728      4345.518     
      4180   302.24743     -928.73723     -2355.8021      4349.2448    
      4190   282.85803     -928.02485     -2745.2306      4351.5227    
      4200   272.15935     -927.59188     -2777.4173      4352.09      
      4210   308.74311     -928.49186     -2558.1727      4350.9186    
      4220   306.28171     -928.33061     -1803.5878      4348.1673    
      4230   276.48278     -927.43595     -712.62916      4344.3049    
      4240   323.88727     -928.69495      124.09936      4339.9852    
      4250   341.6676      -929.14282      972.20393      4335.7536    
      4260   273.27626     -927.21578      2049.0028      4332.1567    
      4270   298.23166     -927.88343      2659.4834      4329.8225    
      4280   373.62692     -929.95709      2760.3069      4329.1311    
      4290   333.41566     -928.85535      2745.0596      4330.1705    
      4300   272.98162     -927.20679      2255.7607      4332.9129    
      4310   316.12998     -928.43336      900.62698      4337.0299    
      4320   314.32691     -928.41184     -558.38821      4341.7232    
      4330   263.55794     -927.02606     -1725.25        4346.0953    
      4340   267.21453     -927.13655     -2602.5495      4349.4053    
      4350   296.84493     -927.95585     -2942.2638      4351.1097    
      4360   295.09504     -927.90093     -2638.1312      4350.9965    
      4370   282.25925     -927.53689     -1964.2991      4349.2408    
      4380   300.9071      -928.04044     -1199.0006      4346.2536    
      4390   342.70877     -929.18772     -356.71596      4342.5176    
      4400   325.63622     -928.71527      771.69156      4338.5804    
      4410   293.21169     -927.82712      1745.0241      4335.1247    
      4420   326.40706     -928.76638      2134.0026      4332.7355    
      4430   354.1128      -929.57546      2173.7342      4331.6702    
      4440   311.26982     -928.45262      2087.7389      4331.9688    
      4450   287.92405     -927.87871      1519.6142      4333.5556    
      4460   280.62327     -927.74572      661.5854       4336.0897    
      4470   268.12987     -927.45546     -44.859597      4339.06      
      4480   283.63815     -927.93043     -567.70499      4342.0249    
      4490   311.29922     -928.74067     -1041.3262      4344.6469    
      4500   308.93234     -928.72408     -1466.1024      4346.6268    
      4510   284.44668     -928.09667     -1801.3258      4347.6972    
      4520   269.7689      -927.73382     -2002.0083      4347.6441    
      4530   285.56862     -928.20963     -1894.4676      4346.3478    
      4540   278.91304     -928.05502     -1227.0524      4343.889     
      4550   264.23883     -927.66337     -81.623617      4340.6845    
      4560   320.92802     -929.24327      941.16697      4337.421     
      4570   351.36893     -930.105        1668.3215      4334.7336    
      4580   305.35893     -928.8663       2092.6012      4333.0809    
      4590   308.63816     -929.01082      1975.2585      4332.7133    
      4600   311.87834     -929.16894      1555.6768      4333.5756    
      4610   269.15575     -928.05285      943.07021      4335.4138    
      4620   269.4149      -928.12021      117.39494      4337.8437    
      4630   283.10122     -928.55476     -569.96012      4340.3689    
      4640   257.62312     -927.88873     -966.24582      4342.5671    
      4650   279.93508     -928.54064     -1340.9652      4344.1671    
      4660   269.5951      -928.2758      -1406.0418      4344.9497    
      4670   246.01881     -927.62643     -1204.0149      4344.8678    
      4680   307.58741     -929.326       -993.42359      4344.0288    
      4690   330.53186     -929.94622     -465.22283      4342.5856    
      4700   298.67113     -929.05421      103.14671      4340.8539    
      4710   302.18138     -929.15036      236.62205      4339.1612    
      4720   274.92236     -928.38764      360.80611      4337.619     
      4730   253.34156     -927.76929      568.72998      4336.3096    
      4740   291.50541     -928.78952      708.1702       4335.3522    
      4750   277.37605     -928.33437      1051.72        4334.8557    
      4760   283.03889     -928.41515      1198.0958      4335.0123    
      4770   338.20577     -929.84841      1025.7189      4335.9089    
      4780   283.49138     -928.22559      996.22671      4337.4739    
      4790   281.18757     -928.06678      448.34476      4339.65      
      4800   365.04443     -930.27565     -642.28826      4342.0921    
      4810   281.43651     -927.84228     -1155.3161      4344.1847    
      4820   205.61388     -925.65261     -1407.6023      4345.577     
      4830   304.86698     -928.2955      -1656.6919      4346.0869    
      4840   323.99877     -928.67254     -1173.9854      4345.6018    
      4850   298.67385     -927.84381     -529.04215      4344.388     
      4860   363.71946     -929.54169     -383.24449      4342.8083    
      4870   331.57051     -928.56766      18.906109      4341.0038    
      4880   248.54789     -926.21241      531.88321      4339.2171    
      4890   296.28941     -927.48739      562.65079      4337.731     
      4900   325.08505     -928.22361      780.10616      4336.6098    
      4910   296.50106     -927.3792       1271.7606      4335.9973    
      4920   328.79799     -928.23707      1367.7535      4336.1633    
      4930   351.14202     -928.83297      1194.9549      4337.1847    
      4940   333.85892     -928.35638      761.47662      4338.9595    
      4950   330.61411     -928.29366     -71.815821      4341.2082    
      4960   295.20881     -927.34711     -713.76632      4343.4451    
      4970   280.82215     -926.97764     -1101.1904      4345.2663    
      4980   322.69061     -928.17014     -1419.7597      4346.4089    
      4990   299.08111     -927.54913     -1198.9789      4346.6992    
      5000   283.70103     -927.15268     -895.75855      4346.2438    
      5010   356.54354     -929.21495     -1069.7497      4345.1942    
      5020   335.22438     -928.69254     -911.3427       4343.4885    
      5030   236.68095     -926.01891     -154.23551      4341.2393    
      5040   286.38034     -927.44239      332.81622      4338.8645    
      5050   349.34928     -929.23983      818.75463      4336.6886    
      5060   306.41933     -928.1119       1695.0796      4335.0472    
      5070   323.60467     -928.66512      1927.433       4334.4297    
      5080   357.42862     -929.71228      1424.5387      4334.9866    
      5090   298.21999     -928.19725      865.80805      4336.4518    
      5100   252.46734     -927.03182      218.76081      4338.4755    
      5110   277.72019     -927.81777     -480.2515       4340.6548    
      5120   287.54457     -928.16356     -854.36701      4342.5734    
      5130   282.20326     -928.0767      -1059.4285      4343.9809    
      5140   289.80025     -928.33883     -1172.1915      4344.7396    
      5150   300.4676      -928.68003     -1035.058       4344.7829    
      5160   308.82549     -928.95558     -767.66581      4344.185     
      5170   319.74654     -929.30659     -577.67294      4343.0973    
      5180   313.51996     -929.18798     -257.67869      4341.6498    
      5190   287.27188     -928.50992      193.19102      4340.0423    
      5200   282.24614     -928.40859      443.9712       4338.538     
      5210   291.30208     -928.68794      471.21377      4337.2945    
      5220   264.42177     -927.95616      456.4572       4336.3423    
      5230   247.49467     -927.48311      428.78018      4335.673     
      5240   264.81306     -927.94146      615.65343      4335.2852    
      5250   287.89072     -928.54565      1005.4241      4335.2995    
      5260   309.72646     -929.11394      1100.9276      4335.9363    
      5270   323.70024     -929.47552      834.73503      4337.2592    
      5280   295.73559     -928.68465      528.47001      4339.1285    
      5290   298.90177     -928.76303     -45.824257      4341.3411    
      5300   317.12201     -929.26184     -818.04863      4343.5417    
      5310   281.03462     -928.25459     -1337.2267      4345.2685    
      5320   269.90547     -927.93578     -1623.6844      4346.1831    
      5330   286.09331     -928.36585     -1538.6052      4346.1031    
      5340   278.41655     -928.12419     -1019.9584      4345.0779    
      5350   308.10042     -928.91641     -539.13954      4343.3984    
      5360   327.81678     -929.43505     -155.90592      4341.3615    
      5370   282.46519     -928.15543      250.86611      4339.2153    
      5380   293.92409     -928.45502      404.89266      4337.1962    
      5390   297.95204     -928.54421      623.09731      4335.4213    
      5400   223.95013     -926.45769      1150.3345      4334.047     
      5410   255.00446     -927.27252      1331.9396      4333.3655    
      5420   330.95022     -929.30135      1346.894       4333.5124    
      5430   303.50224     -928.45864      1529.2675      4334.5281    
      5440   297.36015     -928.22373      1355.3528      4336.5068    
      5450   357.44164     -929.83044      575.29471      4339.3356    
      5460   338.6383      -929.266       -221.56043      4342.5718    
      5470   303.02313     -928.26087     -995.90659      4345.7148    
      5480   298.57606     -928.12667     -1691.2269      4348.275     
      5490   298.79328     -928.12099     -2176.7104      4349.8102    
      5500   296.28836     -928.04128     -2426.9364      4349.9987    
      5510   266.99472     -927.2142      -2239.6169      4348.6775    
      5520   274.14185     -927.3877      -1608.5564      4345.9484    
      5530   325.41302     -928.77279     -633.59395      4342.1905    
      5540   301.04662     -928.05388      680.2176       4338.0156    
      5550   275.42452     -927.30055      1719.1863      4334.2132    
      5560   327.70409     -928.70188      2175.7593      4331.4233    
      5570   319.80724     -928.43127      2496.4169      4329.9728    
      5580   278.4403      -927.24177      2516.1611      4330.0676    
      5590   314.39412     -928.19637      1954.2067      4331.7206    
      5600   325.21151     -928.44453      1348.6698      4334.6337    
      5610   305.32219     -927.84486      796.78405      4338.4492    
      5620   341.77044     -928.81096     -105.98678      4342.8072    
      5630   354.30028     -929.12093     -1160.5372      4347.1578    
      5640   297.28102     -927.52018     -2055.0644      4350.8488    
      5650   275.9666      -926.9149      -2845.548       4353.2931    
      5660   305.25692     -927.70512     -3193.536       4353.9884    
      5670   331.21563     -928.40069     -2876.697       4352.7006    
      5680   322.09485     -928.13384     -1992.6946      4349.6024    
      5690   300.76181     -927.53729     -802.97725      4345.2221    
      5700   309.46932     -927.77542      259.29264      4340.2763    
      5710   318.53384     -928.0257       1103.992       4335.4273    
      5720   287.28625     -927.16081      1980.2525      4331.2239    
      5730   268.48475     -926.63517      2782.0286      4328.218     
      5740   311.86126     -927.82863      3151.81        4326.9044    
      5750   332.99284     -928.40895      3209.0613      4327.5467    
      5760   317.05399     -927.97826      2923.0193      4330.2093    
      5770   346.28512     -928.82247      1839.6284      4334.7162    
      5780   364.51926     -929.39553      249.55576      4340.4322    
      5790   289.66994     -927.40417     -1119.109       4346.4159    
      5800   267.00894     -926.84568     -2433.6871      4351.786     
      5810   324.07933     -928.50338     -3550.6233      4355.7       
      5820   315.09475     -928.34293     -3840.5033      4357.46      
      5830   311.84132     -928.35461     -3567.9412      4356.8298    
      5840   336.19727     -929.15685     -3013.8213      4353.9343    
      5850   288.0607      -927.95345     -1952.1322      4349.1172    
      5860   256.9031      -927.1895      -729.66869      4343.0124    
      5870   302.9867      -928.55634      401.95194      4336.3657    
      5880   274.68623     -927.84316      1933.7718      4329.9218    
      5890   248.09524     -927.14704      3406.1226      4324.6168    
      5900   298.10456     -928.56479      4218.0096      4321.3513    
      5910   295.8594      -928.53107      4549.7235      4320.6724    
      5920   274.77582     -927.97415      4251.5544      4322.8125    
      5930   324.76355     -929.39293      3137.6682      4327.6172    
      5940   347.82936     -930.07778      1606.2931      4334.4579    
      5950   306.43419     -928.98549     -122.55939      4342.4181    
      5960   293.67223     -928.68266     -2089.5541      4350.4159    
      5970   300.77023     -928.92285     -3851.6497      4357.2228    
      5980   297.31119     -928.86998     -4980.2247      4361.7127    
      5990   283.81396     -928.54351     -5453.1479      4363.1226    
      6000   261.86129     -927.98171     -5290.145       4361.1028    
      6010   243.16615     -927.50054     -4302.8813      4355.7277    
      6020   225.67317     -927.02569     -2298.1597      4347.6089    
      6030   265.02547     -928.08948      236.4074       4337.9728    
      6040   331.74846     -929.87082      2716.6699      4328.3819    
      6050   323.4243      -929.55725      4905.1124      4320.3893    
      6060   290.98139     -928.58932      6191.1269      4315.3398    
      6070   308.30459     -929.01576      6266.7079      4314.0439    
      6080   309.80116     -929.01309      5481.6316      4316.6127    
      6090   264.0527      -927.70597      4070.0767      4322.6253    
      6100   278.17635     -928.04852      1925.554       4331.2445    
      6110   312.21237     -928.90478     -392.94412      4341.1996    
      6120   311.95718     -928.78371     -2414.2518      4351.0712    
      6130   299.59899     -928.31766     -4149.5955      4359.5639    
      6140   305.96419     -928.36636     -5595.3981      4365.5391    
      6150   308.70094     -928.31498     -6402.414       4368.0476    
      6160   283.73388     -927.50979     -6139.9258      4366.5494    
      6170   269.21366     -927.00499     -4751.0567      4361.1748    
      6180   304.62224     -927.87188     -2693.5382      4352.7577    
      6190   354.47507     -929.11703     -444.66736      4342.5669    
      6200   319.27844     -928.01324      2001.8127      4332.0271    
      6210   282.47495     -926.88815      4260.8898      4322.6565    
      6220   318.45477     -927.79019      5837.3831      4315.8443    
      6230   321.1723      -927.78658      6747.4518      4312.59      
      6240   290.33409     -926.88679      6816.1441      4313.4789    
      6250   337.52976     -928.1819       5559.5178      4318.5683    
      6260   371.90191     -929.14817      3429.7423      4327.1611    
      6270   316.32389     -927.63946      920.40446      4338.0053    
      6280   306.9765      -927.40578     -2014.9358      4349.5425    
      6290   321.8449      -927.82945     -4628.9852      4359.9578    
      6300   292.31219     -927.01518     -6247.905       4367.5949    
      6310   294.47825     -927.08479     -6907.79        4371.3671    
      6320   333.41967     -928.19414     -6651.7226      4370.8026    
      6330   330.41132     -928.16651     -5393.3278      4366.0377    
      6340   314.07496     -927.78328     -3494.5334      4357.8357    
      6350   330.63467     -928.3146      -1341.0653      4347.3785    
      6360   332.76611     -928.44488      1004.6162      4336.0306    
      6370   292.80907     -927.39372      3452.2533      4325.2692    
      6380   266.31247     -926.68964      5528.0639      4316.6009    
      6390   296.83714     -927.55773      6762.1417      4311.2944    
      6400   327.84342     -928.45558      7056.6197      4310.121     
      6410   306.71311     -927.9309       6483.1315      4313.2951    
      6420   306.51352     -928.00092      4920.7057      4320.493     
      6430   331.54017     -928.77844      2528.3985      4330.7983    
      6440   310.74265     -928.2761      -265.43489      4342.7751    
      6450   316.45556     -928.49412     -3129.0203      4354.693     
      6460   316.93829     -928.56108     -5527.4299      4364.7526    
      6470   272.32536     -927.36836     -7105.992       4371.4099    
      6480   280.72522     -927.64724     -7786.2753      4373.6162    
      6490   305.46002     -928.39629     -7229.9532      4370.9233    
      6500   283.24785     -927.85031     -5407.7351      4363.6753    
      6510   300.87483     -928.40359     -2896.8856      4353.0015    
      6520   325.34254     -929.13445      33.2323        4340.4962    
      6530   294.63175     -928.31409      3078.5964      4328.0045    
      6540   289.25089     -928.17614      5584.8579      4317.3987    
      6550   311.62072     -928.80767      7154.2958      4310.2107    
      6560   296.30563     -928.40825      7639.5122      4307.3996    
      6570   283.27718     -928.09097      7000.1489      4309.2663    
      6580   264.35989     -927.61313      5578.3516      4315.4585    
      6590   277.32912     -928.00756      3431.8587      4325.1292    
      6600   324.62489     -929.33783      755.95784      4336.9808    
      6610   298.16305     -928.60309     -1901.3881      4349.3849    
      6620   291.88449     -928.41258     -4559.9796      4360.652     
      6630   333.77186     -929.55657     -6772.6885      4369.0942    
      6640   285.79214     -928.2232      -7717.7869      4373.3203    
      6650   240.20258     -926.96915     -7591.3789      4372.6867    
      6660   284.30184     -928.20908     -6509.5465      4367.2592    
      6670   285.04635     -928.23198     -4080.5297      4357.7687    
      6680   291.92492     -928.40174     -1015.3067      4345.7402    
      6690   344.30523     -929.80182      1875.3188      4333.0849    
      6700   319.10181     -929.03053      4539.9492      4321.6273    
      6710   285.94774     -928.03909      6479.5438      4312.9891    
      6720   307.28271     -928.55966      7393.4611      4308.335     
      6730   282.53616     -927.79927      7575.27        4308.2372    
      6740   289.31019     -927.91638      6555.3207      4312.7769    
      6750   314.47683     -928.51693      4447.2598      4321.3464    
      6760   284.80247     -927.56798      1842.8573      4332.6938    
      6770   308.28917     -928.06483     -1250.8106      4345.1995    
      6780   311.29944     -927.95182     -4074.3334      4356.9586    
      6790   243.4383      -925.88196     -5888.1106      4366.2103    
      6800   304.23307     -927.3986      -7022.9199      4371.7548    
      6810   393.07075     -929.68371     -7180.7162      4372.8739    
      6820   324.74318     -927.67806     -5895.0743      4369.5031    
      6830   315.37604     -927.37185     -4103.2839      4362.4215    
      6840   385.0731      -929.27864     -2225.0447      4352.7709    
      6850   346.90258     -928.2192       109.13839      4341.7916    
      6860   305.08892     -927.07124      2446.736       4330.9382    
      6870   326.46728     -927.67763      4389.2128      4321.6499    
      6880   304.91529     -927.09766      5963.9532      4315.1243    
      6890   280.80523     -926.4544       6691.561       4312.2866    
      6900   291.73041     -926.79271      6265.9722      4313.551     
      6910   313.34242     -927.43718      4964.8252      4318.6623    
      6920   331.51254     -928.00039      3167.3829      4326.8372    
      6930   301.34053     -927.22493      1147.7359      4336.9806    
      6940   307.80257     -927.45491     -1234.6398      4347.821     
      6950   364.19573     -929.07715     -3641.5774      4357.8727    
      6960   341.97651     -928.54571     -5315.8072      4365.6488    
      6970   310.85816     -927.786       -6347.3593      4370.0682    
      6980   327.34091     -928.37466     -6749.8355      4370.4708    
      6990   285.51231     -927.35849     -5963.3088      4366.6514    
      7000   268.81029     -927.01744     -4246.4813      4359.1221    
      7010   341.42592     -929.15273     -2019.1471      4348.9829    
      7020   331.38868     -928.99474      808.64584      4337.6829    
      7030   279.81393     -927.64886      3518.8195      4326.9716    
      7040   318.66935     -928.79522      5219.9022      4318.4775    
      7050   302.1721      -928.40753      6256.077       4313.2547    
      7060   249.04775     -926.98834      6517.249       4311.9054    
      7070   290.23374     -928.18336      5625.9248      4314.5402    
      7080   292.18525     -928.2869       4243.5407      4320.6353    
      7090   253.79287     -927.25413      2562.1269      4329.3415    
      7100   306.85314     -928.74042      233.64292      4339.5855    
      7110   327.75633     -929.31745     -1975.5054      4349.9559    
      7120   304.13088     -928.65649     -3863.4968      4359.0655    
      7130   333.26381     -929.46888     -5649.413       4365.6961    
      7140   314.28276     -928.96669     -6588.1495      4368.7604    
      7150   244.06672     -927.0509      -6306.2346      4367.6964    
      7160   261.54833     -927.56427     -5279.6071      4362.6808    
      7170   308.08816     -928.87222     -3401.6424      4354.415     
      7180   305.34289     -928.79893     -729.01219      4344.1283    
      7190   315.04834     -929.06131      1840.5989      4333.4779    
      7200   306.26589     -928.80327      3939.3085      4324.0581    
      7210   284.90021     -928.19369      5490.8546      4317.1528    
      7220   299.75093     -928.59483      6175.6765      4313.67      
      7230   291.93711     -928.37729      5988.0135      4313.9975    
      7240   257.25376     -927.41837      5065.249       4317.9993    
      7250   273.79524     -927.87119      3330.9478      4325.0809    
      7260   298.37795     -928.52203      1142.0525      4334.1751    
      7270   271.54438     -927.72046     -936.06541      4343.9444    
      7280   284.96881     -928.01231     -2931.0234      4353.0738    
      7290   332.48311     -929.22059     -4552.6419      4360.3188    
      7300   325.32815     -928.90819     -5246.8703      4364.6896    
      7310   293.96309     -927.94255     -5140.1057      4365.7537    
      7320   352.77985     -929.48734     -4846.735       4363.5646    
      7330   354.03996     -929.44212     -3879.8985      4358.3754    
      7340   266.77155     -926.96475     -2135.1842      4350.8421    
      7350   275.6027      -927.14715     -374.68005      4342.051     
      7360   326.49348     -928.45483      1448.0099      4333.1302    
      7370   285.37652     -927.18518      3576.8386      4325.2395    
      7380   297.57955     -927.39286      5043.8483      4319.6265    
      7390   350.55053     -928.71333      5514.7139      4317.1506    
      7400   291.87157     -926.9516       5386.3708      4318.0929    
      7410   266.7595      -926.15304      4409.5007      4322.3251    
      7420   338.98994     -928.03869      2743.3146      4329.2285    
      7430   342.16146     -927.9969       1011.1238      4337.7923    
      7440   326.58576     -927.46276     -899.94061      4346.9161    
      7450   354.6084      -928.15602     -2906.5977      4355.3979    
      7460   351.39115     -928.00846     -4397.5184      4362.008     
      7470   327.36653     -927.32061     -5195.3777      4365.8203    
      7480   322.79162     -927.20296     -5382.7979      4366.3428    
      7490   321.35847     -927.19284     -4830.2742      4363.5009    
      7500   358.09136     -928.26924     -3632.9859      4357.6793    
      7510   334.57174     -927.69662     -1672.0089      4349.6914    
      7520   295.72226     -926.69043      492.49647      4340.7756    
      7530   344.97472     -928.12511      2165.5833      4332.2632    
      7540   347.0539      -928.2674       3530.6452      4325.2031    
      7550   266.42788     -926.10227      4663.0552      4320.4237    
      7560   279.05302     -926.50592      5041.2201      4318.5549    
      7570   308.1159      -927.36239      4880.4272      4319.8086    
      7580   300.54439     -927.20041      4188.6908      4324.0515    
      7590   347.82733     -928.56928      2715.6354      4330.8125    
      7600   360.06479     -928.98157      885.89661      4339.1839    
      7610   331.05474     -928.25456     -1074.5734      4348.0231    
      7620   344.09362     -928.69568     -3148.1325      4356.0902    
      7630   318.03943     -928.05163     -4712.8013      4362.1188    
      7640   287.60842     -927.27457     -5598.5863      4365.1421    
      7650   313.69462     -928.06875     -5762.8479      4364.631     
      7660   293.92102     -927.59439     -4784.7937      4360.5568    
      7670   270.39914     -927.00168     -2979.3268      4353.5778    
      7680   310.21531     -928.15238     -954.61519      4344.8482    
      7690   311.96488     -928.23407      1275.5044      4335.6777    
      7700   300.61161     -927.94201      3258.7117      4327.4411    
      7710   327.56092     -928.71682      4572.4122      4321.3252    
      7720   308.18462     -928.21849      5446.9249      4318.1189    
      7730   291.71917     -927.80945      5521.7186      4318.292     
      7740   331.47963     -928.97814      4431.9987      4321.8176    
      7750   308.53646     -928.4189       2858.5791      4328.0243    
      7760   272.44401     -927.48459      1032.6621      4335.9176    
      7770   291.72515     -928.06889     -1010.4796      4344.342     
      7780   292.98493     -928.13835     -2752.7793      4352.0416    
      7790   272.88972     -927.60159     -3913.0631      4357.9425    
      7800   309.67821     -928.64192     -4618.9568      4361.3218    
      7810   337.05115     -929.43688     -4664.2664      4361.7816    
      7820   308.51466     -928.7031      -4101.2023      4359.3357    
      7830   291.21013     -928.2888      -3235.7572      4354.3723    
      7840   297.37597     -928.52663     -1914.8288      4347.4943    
      7850   259.83677     -927.53473      52.072973      4339.5854    
      7860   258.14952     -927.50883      1987.6136      4331.8569    
      7870   330.02071     -929.51225      3417.905       4325.4808    
      7880   330.71106     -929.55245      4552.9815      4321.3302    
      7890   275.43746     -928.05322      4967.6644      4320.0371    
      7900   297.7306      -928.71609      4230.7947      4321.7765    
      7910   289.22386     -928.52766      3082.8536      4326.0899    
      7920   237.66782     -927.1298       1765.0874      4332.2421    
      7930   270.24025     -928.04453      99.698555      4339.3764    
      7940   318.44094     -929.37046     -1487.7223      4346.4674    
      7950   313.02024     -929.20427     -2772.5926      4352.5337    
      7960   298.59827     -928.79578     -3757.9603      4356.7786    
      7970   282.7349      -928.35016     -4170.3409      4358.6262    
      7980   281.68922     -928.31343     -4009.9043      4357.8563    
      7990   306.87067     -929.00166     -3356.3367      4354.6128    
      8000   284.1136      -928.35175     -2027.6378      4349.3726    
      8010   279.08054     -928.18074     -510.61894      4342.9846    
      8020   325.87482     -929.42796      778.37103      4336.3982    
      8030   283.45908     -928.18397      2166.0578      4330.4439    
      8040   253.29024     -927.27357      3199.3198      4325.9397    
      8050   322.41195     -929.09464      3525.3162      4323.4686    
      8060   296.07399     -928.24603      3869.8611      4323.2359    
      8070   250.88594     -926.88946      3870.5068      4325.3894    
      8080   333.21921     -929.05564      2820.2567      4329.8435    
      8090   349.83876     -929.37565      1424.4114      4335.9566    
      8100   305.83475     -928.04426     -105.76618      4342.8462    
      8110   337.6586      -928.83409     -1936.3839      4349.5305    
      8120   319.19164     -928.23597     -3351.7474      4354.9095    
      8130   247.13783     -926.16917     -4112.0011      4358.1267    
      8140   276.0397      -926.90644     -4441.8684      4358.7241    
      8150   309.70236     -927.75973     -3885.3716      4356.5751    
      8160   298.02351     -927.3579      -2480.2873      4352.0885    
      8170   331.72324     -928.22194     -911.7115       4346.1577    
      8180   341.63741     -928.43088      745.98195      4339.799     
      8190   340.6546      -928.35919      2131.0165      4334.0351    
      8200   359.14596     -928.85781      2944.3281      4329.6916    
      8210   318.29697     -927.73882      3485.8371      4327.2588    
      8220   295.48774     -927.13494      3471.4277      4327.0103    
      8230   323.22493     -927.94411      2769.8423      4328.8832    
      8240   303.44021     -927.44222      1872.374       4332.4315    
      8250   286.90871     -927.02743      899.00648      4337.0762    
      8260   334.61864     -928.39958     -326.66631      4342.1802    
      8270   324.26352     -928.17347     -1388.9541      4346.9989    
      8280   279.72339     -926.99989     -2206.7935      4350.8764    
      8290   297.84838     -927.56286     -2922.0724      4353.3051    
      8300   314.52277     -928.0923      -3093.2585      4353.8913    
      8310   311.24276     -928.07942     -2674.4095      4352.567     
      8320   314.12818     -928.25095     -2014.7691      4349.6134    
      8330   297.86467     -927.8954      -1118.4739      4345.4813    
      8340   292.15017     -927.82795     -15.873225      4340.7545    
      8350   310.47428     -928.42513      1202.5856      4336.1306    
      8360   328.4259      -929.02255      2239.0663      4332.3459    
      8370   321.61684     -928.94612      2889.6594      4330.015     
      8380   315.85854     -928.90921      2882.0619      4329.4923    
      8390   306.19099     -928.76399      2281.0557      4330.7414    
      8400   296.68384     -928.61529      1338.6083      4333.3685    
      8410   254.5528      -927.53106      443.96203      4336.7874    
      8420   247.93786     -927.39385     -429.48025      4340.4252    
      8430   286.68769     -928.49253     -1189.5409      4343.7388    
      8440   272.03835     -928.09149     -1501.5431      4346.2808    
      8450   272.11635     -928.08626     -1683.1198      4347.8506    
      8460   330.86318     -929.70705     -1920.2147      4348.3388    
      8470   303.22175     -928.93707     -1718.1618      4347.6495    
      8480   256.1615      -927.62801     -1236.1653      4345.9196    
      8490   302.86483     -928.91374     -726.45596      4343.4539    
      8500   318.91415     -929.34444      91.402914      4340.6044    
      8510   288.94028     -928.50141      905.62986      4337.8715    
      8520   319.52511     -929.34487      1169.9494      4335.7245    
      8530   309.34069     -929.0612       1323.0621      4334.3458    
      8540   268.32147     -927.92357      1436.3814      4333.8179    
      8550   267.38153     -927.88849      1271.4469      4334.1818    
      8560   289.09301     -928.46799      925.15928      4335.3261    
      8570   303.56849     -928.8392       591.83984      4337.035     
      8580   290.49704     -928.44587      234.84626      4339.0904    
      8590   257.78153     -927.5015      -196.39896      4341.2635    
      8600   288.90625     -928.31769     -779.39826      4343.2761    
      8610   308.30619     -928.79386     -1114.3183      4344.791     
      8620   274.66014     -927.797       -1116.6964      4345.6123    
      8630   317.2774      -928.91713     -1267.2067      4345.717     
      8640   332.00267     -929.26104     -1195.3389      4345.0456    
      8650   263.36268     -927.30396     -673.27629      4343.669     
      8660   275.65994     -927.59309     -210.95415      4341.8914    
      8670   329.78233     -929.02429      164.7479       4340.008     
      8680   322.7703      -928.76109      663.06238      4338.2679    
      8690   312.06655     -928.41306      1112.7168      4336.969     
      8700   312.19656     -928.37479      1308.1003      4336.3743    
      8710   313.57429     -928.37794      1133.9208      4336.5898    
      8720   320.52206     -928.54526      726.66685      4337.503     
      8730   289.00015     -927.65046      373.46274      4338.8704    
      8740   279.12843     -927.35464     -145.6729       4340.4504    
      8750   300.72728     -927.92305     -627.22887      4341.9276    
      8760   276.47274     -927.20865     -645.59206      4343.0289    
      8770   286.85603     -927.44646     -590.29668      4343.7236    
      8780   355.03964     -929.27606     -728.33229      4344.0322    
      8790   317.86137     -928.18655     -529.13234      4343.9103    
      8800   292.94837     -927.45283     -388.78767      4343.4604    
      8810   334.85826     -928.57078     -460.85258      4342.7633    
      8820   296.73048     -927.46455     -209.30476      4341.8109    
      8830   269.31806     -926.65365      101.67614      4340.7458    
      8840   338.8944      -928.51298      283.84827      4339.7499    
      8850   345.68937     -928.61055      827.82295      4338.9707    
      8860   333.24983     -928.18839      1265.0273      4338.7175    
      8870   371.31473     -929.18139      1099.4086      4339.2307    
      8880   348.53469     -928.51085      622.56913      4340.4203    
      8890   304.64562     -927.2821      -102.07396      4341.9847    
      8900   298.90882     -927.1213      -919.5651       4343.4719    
      8910   263.73824     -926.13577     -1241.3266      4344.4063    
      8920   266.67607     -926.19496     -1243.6465      4344.5756    
      8930   301.98242     -927.1324      -971.49174      4343.9818    
      8940   311.66199     -927.34566     -298.55741      4342.8112    
      8950   340.92563     -928.10411      384.56739      4341.4684    
      8960   369.52058     -928.86225      726.58627      4340.362     
      8970   337.63615     -927.9759       925.43329      4339.7201    
      8980   334.56009     -927.91938      889.95002      4339.656     
      8990   352.08821     -928.46508      640.18585      4340.1451    
      9000   327.60905     -927.87354      332.08392      4341.0381    
      9010   328.02437     -927.99557     -154.57278      4342.1309    
      9020   319.4326      -927.88849     -618.00437      4343.1285    
      9030   275.64312     -926.7966      -838.54089      4343.7537    
      9040   287.06097     -927.2221      -910.2242       4343.8615    
      9050   305.1266      -927.83031     -735.69044      4343.4161    
      9060   289.75864     -927.50154     -337.2556       4342.5292    
      9070   315.86766     -928.3191       16.760174      4341.4371    
      9080   350.91512     -929.40247      205.3177       4340.3568    
      9090   314.30789     -928.51031      328.33655      4339.414     
      9100   266.04141     -927.27419      358.58096      4338.681     
      9110   265.66013     -927.33774      426.51836      4338.1838    
      9120   303.24137     -928.44132      515.39607      4337.9617    
      9130   316.60468     -928.87211      614.38297      4338.0705    
      9140   304.22483     -928.58963      631.22514      4338.5664    
      9150   310.86278     -928.83486      441.66982      4339.4524    
      9160   319.69293     -929.1476       93.683235      4340.6107    
      9170   273.24343     -927.91983     -206.995        4341.8359    
      9180   272.86058     -927.95232     -656.43061      4342.9256    
      9190   324.52053     -929.42711     -1105.0752      4343.6033    
      9200   281.06754     -928.26053     -914.07229      4343.6286    
      9210   251.09017     -927.45247     -587.50824      4343.0913    
      9220   315.50347     -929.25469     -576.21215      4342.1698    
      9230   306.57466     -929.01988     -269.1981       4340.912     
      9240   256.4211      -927.63609      255.11495      4339.5064    
      9250   295.57724     -928.72235      454.1737       4338.2472    
      9260   305.76356     -928.99544      688.06427      4337.2848    
      9270   276.78524     -928.17979      925.63421      4336.7626    
      9280   292.12957     -928.58928      806.87495      4336.8065    
      9290   306.97699     -928.97741      557.21775      4337.3563    
      9300   298.04288     -928.70497      348.33478      4338.2646    
      9310   285.32529     -928.32617      102.01694      4339.3948    
      9320   270.17165     -927.86981     -178.51799      4340.5932    
      9330   283.0454      -928.17594     -457.97624      4341.6839    
      9340   297.42599     -928.50458     -541.50959      4342.5029    
      9350   290.7564      -928.23489     -391.79343      4343.0005    
      9360   321.82813     -929.00087     -316.34674      4343.2525    
      9370   346.047       -929.56641     -398.21813      4343.3028    
      9380   302.98159     -928.27632     -467.11794      4343.1106    
      9390   283.29547     -927.64361     -528.01721      4342.6305    
      9400   300.92332     -928.03207     -516.3845       4341.8262    
      9410   278.01879     -927.27891     -202.67132      4340.7208    
      9420   284.79829     -927.3405       197.61547      4339.4966    
      9430   316.60805     -928.07248      559.71696      4338.3999    
      9440   334.71569     -928.41895      847.94227      4337.6565    
      9450   338.5633      -928.39013      1076.7821      4337.4494    
      9460   316.62005     -927.67717      1115.273       4337.9159    
      9470   304.72885     -927.26774      712.2171       4339.0666    
      9480   325.15825     -927.76884      54.951711      4340.6571    
      9490   314.66103     -927.42448     -235.8341       4342.3139    
      9500   323.9679      -927.64772     -421.79891      4343.8362    
      9510   344.55338     -928.20321     -779.36541      4345.09      
      9520   300.40786     -926.97849     -961.64083      4345.8726    
      9530   308.48851     -927.21073     -1075.1551      4346.058     
      9540   352.96801     -928.46468     -991.51181      4345.5813    
      9550   320.48067     -927.59999     -472.17919      4344.5114    
      9560   305.48533     -927.22565     -63.433308      4343.1415    
      9570   348.31959     -928.46639      26.204394      4341.717     
      9580   322.85171     -927.8248       264.27607      4340.3238    
      9590   293.47656     -927.06948      497.5559       4339.1018    
      9600   329.69237     -928.13582      489.84613      4338.1806    
      9610   301.05416     -927.40094      733.39481      4337.5887    
      9620   283.97495     -926.97391      955.94754      4337.4619    
      9630   339.33375     -928.55698      856.19215      4337.9229    
      9640   350.05728     -928.91778      685.06949      4338.9267    
      9650   314.06993     -927.99401      388.81433      4340.3656    
      9660   306.78858     -927.86438     -267.52696      4342.0379    
      9670   299.38572     -927.72508     -848.9599       4343.5569    
      9680   266.29498     -926.85552     -1052.4534      4344.5721    
      9690   276.62642     -927.17206     -1080.7249      4344.9399    
      9700   330.30613     -928.68615     -979.61019      4344.6385    
      9710   340.06852     -928.99517     -617.74862      4343.7393    
      9720   301.38284     -927.97005     -170.31061      4342.4601    
      9730   309.59107     -928.2476       118.83919      4341.0666    
      9740   330.00196     -928.87126      451.57303      4339.7535    
      9750   305.9243      -928.26573      837.52361      4338.7325    
      9760   313.02242     -928.52773      840.1536       4338.2199    
      9770   327.9299      -929.01653      566.6649       4338.2257    
      9780   291.57183     -928.08409      311.08712      4338.5969    
      9790   260.27545     -927.2757       14.772026      4339.1684    
      9800   262.99648     -927.38947     -280.06048      4339.7562    
      9810   281.93405     -927.93626     -426.73865      4340.183     
      9820   292.20617     -928.23275     -375.0215       4340.3578    
      9830   274.22468     -927.73685     -48.057405      4340.3182    
      9840   279.87632     -927.88504      290.44962      4340.2551    
      9850   346.06745     -929.7116       314.65566      4340.3606    
      9860   336.50832     -929.45131      387.21011      4340.6769    
      9870   303.28566     -928.5518       260.81785      4341.2348    
      9880   338.47219     -929.56586     -293.34169      4341.9392    
      9890   308.09014     -928.77534     -583.96966      4342.4844    
      9900   238.31774     -926.87978     -552.25303      4342.6887    
      9910   279.62058     -928.05157     -687.13993      4342.5373    
      9920   316.57055     -929.09484     -575.47818      4341.9723    
      9930   279.63896     -928.08635     -117.13233      4341.0692    
      9940   287.83959     -928.32709      75.729642      4340.0779    
      9950   308.75362     -928.91813      110.01613      4339.1268    
      9960   268.3883      -927.8038       352.48147      4338.2617    
      9970   263.45973     -927.66322      424.82398      4337.6089    
      9980   287.2458      -928.3008       452.79504      4337.2238    
      9990   296.73668     -928.5243       646.35403      4337.1375    
     10000   304.45554     -928.68637      795.92245      4337.4609    
     10010   308.00343     -928.7204       729.1985       4338.2809    
     10020   311.96455     -928.75411      436.15107      4339.5586    
     10030   320.30478     -928.89783     -0.25522395     4341.1149    
     10040   303.35178     -928.33069     -269.74548      4342.6958    
     10050   300.85115     -928.15715     -503.27251      4344.1225    
     10060   324.16608     -928.68481     -918.98818      4345.2335    
     10070   316.39502     -928.34359     -1213.5735      4345.7827    
     10080   283.91455     -927.32516     -1176.6824      4345.5932    
     10090   293.58079     -927.47608     -1065.041       4344.667     
     10100   301.60151     -927.56946     -692.6394       4343.084     
     10110   301.98938     -927.45271      0.39897398     4341.0803    
     10120   323.62931     -927.93034      660.89557      4339.0712    
     10130   336.5667      -928.1789       1079.5602      4337.4617    
     10140   327.07976     -927.83157      1277.6916      4336.5189    
     10150   312.59398     -927.36969      1257.1586      4336.3712    
     10160   311.71922     -927.3006       928.9241       4337.003     
     10170   299.48755     -926.92324      520.23595      4338.2252    
     10180   306.52484     -927.08489      245.6937       4339.7964    
     10190   339.66858     -927.97711      91.768363      4341.5443    
     10200   349.38555     -928.23925     -7.2909791      4343.3712    
     10210   344.47424     -928.12444     -311.38477      4345.2012    
     10220   362.15435     -928.67054     -939.01342      4346.8329    
     10230   345.19585     -928.29272     -1375.1141      4347.8993    
     10240   291.1894      -926.89592     -1411.5795      4348.1319    
     10250   298.8471      -927.20429     -1412.8314      4347.4778    
     10260   327.68113     -928.10926     -1204.3156      4345.9437    
     10270   298.14184     -927.3967      -647.10366      4343.6655    
     10280   288.40903     -927.21912     -99.489762      4340.9705    
     10290   319.0546      -928.16135      411.84669      4338.1997    
     10300   288.69535     -927.403        1099.267       4335.6911    
     10310   277.87833     -927.16765      1456.0839      4333.8451    
     10320   319.707       -928.38827      1582.4697      4332.8962    
     10330   317.35064     -928.38607      1846.408       4332.9526    
     10340   301.01254     -927.995        1854.5549      4334.1635    
     10350   324.76697     -928.71886      1292.205       4336.5235    
     10360   328.83463     -928.90327      545.20651      4339.7137    
     10370   314.3414      -928.57497     -272.28213      4343.2756    
     10380   316.99661     -928.72186     -1201.7789      4346.6914    
     10390   306.587       -928.50241     -1960.725       4349.3886    
     10400   295.24003     -928.24891     -2475.8851      4350.8825    
     10410   286.51156     -928.05978     -2643.6125      4350.8402    
     10420   258.58822     -927.31941     -2188.3747      4349.1627    
     10430   289.11162     -928.18605     -1480.9335      4346.1046    
     10440   316.14735     -928.94998     -572.31779      4342.1062    
     10450   272.63428     -927.74931      613.16257      4337.7444    
     10460   286.34275     -928.12761      1523.462       4333.7308    
     10470   322.51004     -929.12506      2103.9825      4330.6367    
     10480   277.21221     -927.86232      2652.9227      4328.8503    
     10490   265.40581     -927.52561      2822.0206      4328.7022    
     10500   310.41694     -928.75794      2398.6436      4330.2969    
     10510   313.7672      -928.83308      1743.8848      4333.4079    
     10520   303.70952     -928.5439       912.78426      4337.6398    
     10530   314.2208      -928.82847     -135.43365      4342.4787    
     10540   331.46948     -929.30561     -1308.5468      4347.2734    
     10550   327.31894     -929.20406     -2335.0781      4351.2947    
     10560   282.94252     -927.99417     -2994.3293      4353.8961    
     10570   276.97527     -927.84712     -3485.4875      4354.6289    
     10580   292.09536     -928.28317     -3499.3839      4353.183     
     10590   233.75296     -926.66794     -2565.841       4349.5647    
     10600   232.63059     -926.61794     -1191.5267      4344.3229    
     10610   325.80711     -929.15021      293.05983      4338.3002    
     10620   326.97016     -929.10549      2147.1748      4332.4536    
     10630   321.6205      -928.89218      3515.0251      4327.8972    
     10640   367.6721      -930.12343      3896.4852      4325.4657    
     10650   302.09824     -928.28367      3814.3543      4325.4456    
     10660   250.13445     -926.83312      3057.6017      4327.788     
     10670   300.86049     -928.21906      1636.2947      4332.0385    
     10680   298.00554     -928.0938       373.22551      4337.3752    
     10690   277.97486     -927.47922     -677.47505      4343.0153    
     10700   319.78047     -928.55826     -1777.7698      4348.279     
     10710   311.8212      -928.23162     -2526.9788      4352.4907    
     10720   291.94101     -927.56934     -2997.7635      4355.1563    
     10730   338.96806     -928.74712     -3333.4773      4355.9485    
     10740   327.02922     -928.27585     -2991.0144      4354.6737    
     10750   308.49552     -927.63803     -2205.6708      4351.5185    
     10760   331.25141     -928.14511     -1335.7521      4346.9488    
     10770   315.78017     -927.5923      -157.43408      4341.525     
     10780   301.97374     -927.09614      1167.8378      4335.9781    
     10790   322.75761     -927.56062      2267.2906      4331.1193    
     10800   317.87758     -927.31775      3222.6208      4327.6496    
     10810   307.7385      -926.94716      3842.9369      4326.1658    
     10820   331.6987      -927.53799      3663.9326      4327.0426    
     10830   343.67402     -927.81454      2841.1544      4330.2014    
     10840   352.4004      -928.02992      1633.0824      4335.1641    
     10850   339.00318     -927.65954      221.00524      4341.2023    
     10860   303.73938     -926.69645     -1331.7056      4347.4391    
     10870   301.74074     -926.65707     -2748.9525      4352.9051    
     10880   325.06319     -927.32485     -3511.2456      4356.7194    
     10890   344.24267     -927.89847     -3610.5587      4358.3764    
     10900   351.36661     -928.17377     -3326.5226      4357.7754    
     10910   345.67151     -928.13056     -2797.3759      4355.072     
     10920   335.95954     -928.00833     -1976.3464      4350.5907    
     10930   299.49301     -927.147       -741.70348      4344.8527    
     10940   292.69792     -927.09052      539.17578      4338.6098    
     10950   318.49936     -927.92977      1706.9515      4332.6607    
     10960   310.26383     -927.81895      2797.7961      4327.743     
     10970   280.10379     -927.07385      3725.449       4324.5424    
     10980   317.11386     -928.18074      4063.8583      4323.6239    
     10990   335.25081     -928.77092      3823.7746      4325.2213    
     11000   301.88143     -927.92876      3009.4049      4329.2114    
     11010   306.95724     -928.14136      1505.878       4335.1023    
     11020   322.78269     -928.64296     -259.66676      4341.9967    
     11030   298.85663     -928.02901     -1832.3774      4348.8171    
     11040   290.10418     -927.82144     -3153.0181      4354.5637    
     11050   309.36412     -928.38442     -4171.2577      4358.3828    
     11060   316.99801     -928.63216     -4608.7733      4359.6179    
     11070   280.5712      -927.6624      -4181.9316      4357.9812    
     11080   269.28257     -927.38168     -3125.9841      4353.7079    
     11090   309.84014     -928.53146     -1679.8759      4347.4401    
     11100   304.05202     -928.38723      264.87957      4340.0964    
     11110   290.0943      -928.00632      2195.8361      4332.8721    
     11120   345.71526     -929.55763      3495.8493      4326.9465    
     11130   358.41989     -929.94642      4269.7776      4323.149     
     11140   281.46901     -927.86856      4499.0501      4321.9764    
     11150   269.89586     -927.60267      3736.7554      4323.5619    
     11160   286.75754     -928.1198       2465.51        4327.4852    
     11170   244.9947      -926.99092      1286.576       4333.0107    
     11180   249.24674     -927.1139       36.130281      4339.4042    
     11190   313.4123      -928.8759      -1296.758       4345.8868    
     11200   331.36117     -929.34795     -2436.1906      4351.6323    
     11210   312.15435     -928.80244     -3377.331       4355.9043    
     11220   302.88992     -928.54507     -3968.2949      4358.0929    
     11230   292.64744     -928.26755     -3943.4376      4357.8144    
     11240   287.6672      -928.13752     -3313.6359      4355.0614    
     11250   308.74427     -928.73036     -2203.4008      4350.2096    
     11260   310.61623     -928.78874     -677.6646       4343.9518    
     11270   306.96044     -928.69396      840.31381      4337.2219    
     11280   305.73537     -928.66768      2204.2155      4330.9675    
     11290   280.7936      -927.98043      3434.6198      4326.0514    
     11300   284.11489     -928.07427      4021.7418      4323.2201    
     11310   308.16252     -928.74475      3908.8128      4322.8526    
     11320   286.37859     -928.14712      3459.9595      4324.9228    
     11330   267.67941     -927.63168      2494.4741      4329.1637    
     11340   292.32977     -928.30597      993.50122      4334.9932    
     11350   280.61919     -927.95055     -481.39484      4341.5212    
     11360   271.69487     -927.65372     -1863.844       4347.8257    
     11370   313.6626      -928.74685     -3088.2981      4353.0257    
     11380   311.79861     -928.60895     -3534.59        4356.366     
     11390   300.94314     -928.22608     -3386.5054      4357.5282    
     11400   346.51734     -929.4106      -3162.4907      4356.5514    
     11410   335.98802     -929.04729     -2561.706       4353.5821    
     11420   296.72563     -927.90689     -1610.7226      4348.9856    
     11430   326.32725     -928.68252     -613.72933      4343.3347    
     11440   312.06011     -928.23786      706.09866      4337.2752    
     11450   265.91248     -926.90854      2017.1101      4331.6173    
     11460   293.21933     -927.60775      2831.0552      4327.1565    
     11470   306.24222     -927.89448      3498.2814      4324.4345    
     11480   283.57007     -927.19092      3924.5186      4323.8771    
     11490   307.20795     -927.77361      3546.8303      4325.7362    
     11500   314.43373     -927.89499      2646.7712      4329.8218    
     11510   299.89958     -927.41655      1442.119       4335.6098    
     11520   317.0425      -927.81471     -112.20868      4342.3595    
     11530   343.13376     -928.45742     -1635.6652      4349.1228    
     11540   339.93902     -928.30136     -2844.5618      4354.949     
     11550   328.42731     -927.93934     -3841.8997      4359.0444    
     11560   320.30102     -927.69238     -4359.2053      4360.7668    
     11570   331.14064     -927.99404     -4206.1611      4359.7677    
     11580   322.56727     -927.77935     -3314.0222      4356.125     
     11590   297.23509     -927.11006     -1873.0068      4350.378     
     11600   322.60957     -927.85166     -336.30109      4343.4024    
     11610   342.51592     -928.45486      1257.5196      4336.1652    
     11620   306.62617     -927.52431      2895.8606      4329.6716    
     11630   293.18665     -927.22169      4001.5548      4324.9204    
     11640   322.19444     -928.11482      4213.4956      4322.5932    
     11650   313.78643     -927.99765      3912.9464      4322.8654    
     11660   270.83679     -926.92512      3313.4206      4325.5869    
     11670   291.81419     -927.62183      2200.0352      4330.3959    
     11680   325.1879      -928.67604      867.14268      4336.639     
     11690   287.45587     -927.75394     -368.34822      4343.5168    
     11700   294.43272     -928.05462     -1920.1843      4350.2268    
     11710   347.34177     -929.64085     -3495.0385      4355.7967    
     11720   312.83317     -928.81507     -4293.107       4359.2536    
     11730   258.89869     -927.42417     -4363.2915      4360.0556    
     11740   293.8482      -928.4832      -4038.5253      4358.1073    
     11750   314.05456     -929.12954     -3072.9596      4353.6097    
     11760   295.52957     -928.69001     -1542.3204      4347.1558    
     11770   296.77222     -928.78175      178.66064      4339.6839    
     11780   297.71546     -928.84691      1892.9921      4332.2684    
     11790   282.56124     -928.44891      3285.4041      4325.9695    
     11800   273.53565     -928.20645      4200.1068      4321.6575    
     11810   288.71136     -928.62893      4592.0479      4319.9154    
     11820   297.69712     -928.88046      4296.0894      4321.0007    
     11830   274.8327      -928.25005      3311.4437      4324.7593    
     11840   234.18946     -927.11312      1909.0565      4330.6247    
     11850   256.06566     -927.68805      232.0014       4337.7504    
     11860   296.97101     -928.76079     -1336.5567      4345.1178    
     11870   300.78136     -928.7913      -2477.1006      4351.754     
     11880   329.27922     -929.51293     -3361.9229      4356.9097    
     11890   359.8342      -930.31154     -3998.0761      4359.9987    
     11900   317.97057     -929.13453     -4118.591       4360.6072    
     11910   284.84266     -928.22101     -3897.1147      4358.6182    
     11920   281.1129      -928.1236      -3274.788       4354.1542    
     11930   276.35055     -927.98811     -2008.182       4347.6084    
     11940   271.52349     -927.83365     -162.29188      4339.7715    
     11950   275.80535     -927.90978      1764.6792      4331.7751    
     11960   284.72337     -928.09392      3437.418       4324.8141    
     11970   297.12533     -928.36438      4685.5258      4319.9322    
     11980   299.7444      -928.36442      5345.2833      4317.9143    
     11990   300.14137     -928.31339      5137.6846      4319.1799    
     12000   295.62101     -928.13417      4071.801       4323.638     
     12010   298.48595     -928.16037      2390.7293      4330.6765    
     12020   314.99872     -928.55738      467.1069       4339.2985    
     12030   328.87944     -928.87656     -1512.0537      4348.3221    
     12040   307.79872     -928.22817     -3365.2558      4356.5048    
     12050   302.76328     -928.03203     -4895.4009      4362.6581    
     12060   306.56716     -928.08819     -5727.5608      4365.7949    
     12070   293.98056     -927.70257     -5680.9455      4365.3549    
     12080   290.57078     -927.58074     -4747.3014      4361.3356    
     12090   319.44868     -928.35549     -3119.2646      4354.2974    
     12100   316.71037     -928.24822     -891.89772      4345.2617    
     12110   298.57695     -927.70736      1493.4826      4335.6099    
     12120   326.87721     -928.44646      3436.5002      4326.8105    
     12130   330.09546     -928.49311      4868.6452      4320.0818    
     12140   276.8997      -926.98675      5781.7866      4316.328     
     12150   289.6808      -927.31972      5724.4449      4316.1065    
     12160   326.24068     -928.31163      4875.9874      4319.4246    
     12170   302.32784     -927.62775      3644.8424      4325.8194    
     12180   310.29374     -927.82593      1798.7429      4334.5456    
     12190   355.96054     -929.05651     -529.66597      4344.4826    
     12200   318.22054     -927.96962     -2720.3077      4354.2101    
     12210   282.12708     -926.93011     -4720.6258      4362.3254    
     12220   325.51357     -928.09442     -6213.8092      4367.5388    
     12230   320.8227      -927.93619     -6392.7511      4368.9069    
     12240   293.44582     -927.17185     -5569.025       4366.2577    
     12250   313.77512     -927.74305     -4263.5299      4360.0606    
     12260   324.20552     -928.04205     -2262.7586      4351.1522    
     12270   313.91651     -927.76544      276.16536      4340.7906    
     12280   315.58038     -927.81536      2757.4475      4330.5463    
     12290   322.92773     -928.02345      4761.5677      4321.957     
     12300   339.26978     -928.50078      5979.2641      4316.2594    
     12310   338.28638     -928.5378       6412.4758      4314.221     
     12320   289.5976      -927.27766      6120.5224      4316.1395    
     12330   301.65394     -927.71442      4594.143       4321.8373    
     12340   324.21729     -928.45597      2145.5598      4330.4222    
     12350   257.43317     -926.69852     -191.68505      4340.4556    
     12360   248.01329     -926.48966     -2322.7204      4350.4804    
     12370   333.33214     -928.89831     -4232.496       4359.1363    
     12380   335.33996     -929.01052     -5274.2313      4365.227     
     12390   307.66807     -928.31878     -5656.1503      4368.0408    
     12400   346.29807     -929.4975      -5794.889       4367.276     
     12410   328.19204     -929.1408      -5139.5828      4362.8559    
     12420   238.19283     -926.76967     -3406.9366      4355.2039    
     12430   250.35055     -927.19026     -1304.7956      4345.3734    
     12440   312.74047     -928.98273      1034.1216      4334.6927    
     12450   301.48409     -928.71412      3624.9241      4324.6403    
     12460   292.16571     -928.48694      5684.8688      4316.7915    
     12470   320.49073     -929.31345      6722.995       4312.4023    
     12480   300.08285     -928.8072       6847.0564      4312.136     
     12490   273.03418     -928.12497      5820.5984      4316.0785    
     12500   290.15917     -928.66674      3757.9416      4323.6346    
     12510   284.41245     -928.55831      1357.6329      4333.5967    
     12520   271.83674     -928.23464     -1132.9322      4344.4965    
     12530   279.05773     -928.43379     -3511.0921      4354.7761    
     12540   267.33194     -928.085       -5278.6487      4362.9404    
     12550   279.57033     -928.39243     -6359.101       4367.8357    
     12560   312.38804     -929.2755      -6605.2779      4368.7478    
     12570   293.79204     -928.74424     -5690.3919      4365.5181    
     12580   295.22424     -928.77828     -4083.3156      4358.6896    
     12590   305.1592      -929.04145     -2047.0881      4349.2718    
     12600   276.00505     -928.20295      421.61377      4338.5641    
     12610   276.64859     -928.16667      2839.5216      4328.0989    
     12620   305.43937     -928.88535      4807.2952      4319.368     
     12630   287.32288     -928.29054      6263.2949      4313.5939    
     12640   288.20693     -928.22938      6823.5984      4311.6559    
     12650   310.64626     -928.76696      6367.1048      4313.9066    
     12660   296.84981     -928.3018       5062.8605      4320.0999    
     12670   313.69481     -928.68505      2901.0561      4329.4562    
     12680   336.51728     -929.21457      149.94407      4340.6697    
     12690   293.75021     -927.91371     -2617.9443      4352.0564    
     12700   267.70507     -927.07286     -5097.1096      4361.8713    
     12710   289.18077     -927.53492     -6845.0457      4368.5345    
     12720   271.51946     -926.90964     -7256.3049      4370.9371    
     12730   277.44913     -926.95666     -6488.5418      4368.7819    
     12740   329.78672     -928.29163     -4837.2823      4362.5359    
     12750   349.80838     -928.7393      -2479.4474      4353.2489    
     12760   319.23593     -927.81013      286.87802      4342.4151    
     12770   334.2902      -928.16346      2791.951       4331.748     
     12780   359.54928     -928.81553      4815.0487      4322.8092    
     12790   344.04049     -928.37118      6153.8356      4316.8417    
     12800   327.39827     -927.93087      6504.3753      4314.6527    
     12810   330.11119     -928.05633      5841.2768      4316.46      
     12820   312.60091     -927.63839      4417.3715      4321.8806    
     12830   272.47448     -926.58347      2391.3555      4330.0583    
     12840   271.87468     -926.59799     -62.266785      4339.754     
     12850   298.63453     -927.34466     -2411.2368      4349.4614    
     12860   300.95602     -927.39905     -4019.6775      4357.7283    
     12870   297.37194     -927.28865     -4910.8314      4363.5159    
     12880   330.66213     -928.21295     -5406.2106      4366.2188    
     12890   353.99752     -928.89024     -5339.6191      4365.5207    
     12900   329.01138     -928.2614      -4521.0141      4361.4712    
     12910   308.20881     -927.76272     -3081.4046      4354.5869    
     12920   322.68535     -928.24488     -1163.674       4345.7828    
     12930   311.60755     -928.01433      1184.6004      4336.2779    
     12940   280.95477     -927.21778      3506.97        4327.5289    
     12950   338.57287     -928.86853      4961.4334      4320.9324    
     12960   365.07387     -929.69192      5649.6054      4317.3955    
     12970   285.11154     -927.57952      5696.4339      4317.35      
     12980   270.69615     -927.27345      4599.5743      4320.7956    
     12990   307.54811     -928.38485      2760.7282      4327.0877    
     13000   279.35208     -927.67464      911.31106      4335.1347    
     13010   266.12118     -927.35123     -912.37699      4343.7869    
     13020   308.09569     -928.54049     -2707.6808      4351.8953    
     13030   310.03288     -928.61302     -4084.2762      4358.3403    
     13040   281.24792     -927.8325      -4910.6844      4362.243     
     13050   289.96865     -928.09399     -5178.7833      4363.0647    
     13060   307.81668     -928.61348     -4609.7579      4360.6469    
     13070   314.51248     -928.83192     -3278.4869      4355.3496    
     13080   306.26039     -928.63924     -1507.5907      4348.0067    
     13090   292.95625     -928.29795      413.78813      4339.7322    
     13100   307.40579     -928.71734      2095.2607      4331.7168    
     13110   307.18192     -928.72678      3526.6978      4325.0126    
     13120   276.94514     -927.89991      4680.6933      4320.5072    
     13130   294.31314     -928.39383      5030.6887      4318.8809    
     13140   323.5718      -929.22806      4560.367       4320.349     
     13150   289.59974     -928.31693      3721.2793      4324.6544    
     13160   280.37797     -928.09149      2280.9536      4331.2689    
     13170   296.4072      -928.55418      292.93763      4339.3075    
     13180   280.84796     -928.12368     -1768.2549      4347.5551    
     13190   264.86287     -927.66249     -3567.5535      4354.7261    
     13200   293.44704     -928.42514     -4866.9979      4359.6818    
     13210   290.15976     -928.29769     -5231.5878      4361.612     
     13220   273.48351     -927.80036     -4683.5748      4360.2756    
     13230   303.9836      -928.60539     -3540.0724      4356.0026    
     13240   315.90185     -928.87871     -1852.4555      4349.5247    
     13250   300.57302     -928.38326      84.983907      4341.9029    
     13260   330.44564     -929.12527      1729.2097      4334.3296    
     13270   332.29427     -929.0726       3165.1902      4327.8436    
     13280   285.18278     -927.66078      4305.254       4323.3336    
     13290   304.10854     -928.07456      4622.2981      4321.4703    
     13300   327.02209     -928.57105      4292.6578      4322.4619    
     13310   303.02312     -927.75958      3467.3919      4326.1164    
     13320   308.19042     -927.75503      2011.4445      4331.9186    
     13330   316.02514     -927.80805      235.81832      4338.9853    
     13340   280.12117     -926.64807     -1396.7199      4346.233     
     13350   275.86638     -926.37553     -2827.5225      4352.6299    
     13360   328.08896     -927.66152     -3719.991       4357.2838    
     13370   354.09157     -928.23546     -3881.2382      4359.6336    
     13380   342.87969     -927.82863     -3669.5117      4359.548     
     13390   325.10908     -927.28596     -3236.4767      4357.1518    
     13400   330.52439     -927.41499     -2449.2275      4352.729     
     13410   333.53732     -927.49622     -1151.285       4346.7921    
     13420   326.56584     -927.31363      485.77858      4340.1558    
     13430   339.84056     -927.70398      2096.827       4333.8327    
     13440   360.23499     -928.31562      3337.4627      4328.8119    
     13450   336.06769     -927.71963      4122.9161      4325.863     
     13460   318.0164      -927.30998      4164.1113      4325.4561    
     13470   335.1821      -927.89523      3349.5192      4327.612     
     13480   319.82844     -927.58937      2022.7263      4331.8494    
     13490   293.95991     -926.98189      537.04761      4337.3643    
     13500   284.78874     -926.81566     -791.01203      4343.247     
     13510   305.09989     -927.45259     -1905.7099      4348.6638    
     13520   307.26414     -927.58104     -2677.192       4352.9144    
     13530   300.4333      -927.45376     -3093.0329      4355.5058    
     13540   337.35512     -928.54883     -3280.768       4356.1584    
     13550   346.66297     -928.90072     -2921.489       4354.7686    
     13560   305.32856     -927.85557     -2009.1202      4351.5641    
     13570   319.07373     -928.33265     -1071.5531      4347.0916    
     13580   358.41521     -929.53809     -204.14782      4341.9387    
     13590   290.96641     -927.77752      928.27016      4336.6767    
     13600   257.17976     -926.91546      1814.2515      4331.9828    
     13610   293.15252     -927.9704       2400.4768      4328.408     
     13620   279.96014     -927.64684      3121.5276      4326.3457    
     13630   273.32861     -927.49137      3481.1016      4326.218     
     13640   334.29451     -929.21266      3005.1533      4328.2271    
     13650   351.53476     -929.73914      2127.6969      4332.1131    
     13660   307.41838     -928.57916      1048.5555      4337.348     
     13670   283.73387     -927.97992     -360.10659      4343.2528    
     13680   280.53622     -927.93129     -1914.427       4348.9544    
     13690   291.76096     -928.26985     -3263.8983      4353.4851    
     13700   287.84063     -928.18274     -3895.3728      4356.0096    
     13710   276.37903     -927.88116     -3705.4103      4356.1236    
     13720   310.92704     -928.8564      -3175.6703      4353.9085    
     13730   315.31141     -929.00072     -2262.2351      4349.7002    
     13740   260.12814     -927.48697     -811.42329      4344.0878    
     13750   280.64377     -928.05905      594.12337      4337.9497    
     13760   323.68071     -929.24364      1871.6436      4332.1678    
     13770   289.67663     -928.28835      3135.5961      4327.5523    
     13780   285.29223     -928.15633      3790.3215      4324.8578    
     13790   320.22479     -929.11736      3723.2642      4324.4906    
     13800   305.08745     -928.69667      3354.0986      4326.445     
     13810   290.46271     -928.29673      2481.2246      4330.4912    
     13820   312.98417     -928.92737      978.65291      4336.089     
     13830   293.31158     -928.3819      -574.32874      4342.3426    
     13840   265.44522     -927.59901     -1914.2253      4348.2902    
     13850   290.70727     -928.27641     -2986.2837      4353.0808    
     13860   296.75673     -928.40695     -3490.1585      4356.0428    
     13870   290.88313     -928.20172     -3576.1079      4356.8332    
     13880   317.31635     -928.88861     -3463.291       4355.3701    
     13890   301.06727     -928.38594     -2780.293       4351.7396    
     13900   260.72683     -927.2085      -1522.0807      4346.3681    
     13910   280.50247     -927.67383     -52.0755        4340.0254    
     13920   317.7555      -928.57969      1572.7227      4333.6356    
     13930   319.24891     -928.46953      3175.8785      4328.2118    
     13940   332.63293     -928.69183      4139.4477      4324.7233    
     13950   347.7351      -928.97516      4313.8237      4323.7719    
     13960   320.41914     -928.1124       3857.088       4325.4902    
     13970   283.0658      -926.99703      2729.4173      4329.6102    
     13980   297.24289     -927.31236      1098.9449      4335.4556    
     13990   315.28065     -927.72173     -459.07274      4342.0512    
     14000   309.21573     -927.46266     -1669.7677      4348.4382    
     14010   317.55808     -927.61051     -2724.0647      4353.8323    
     14020   338.9475      -928.13153     -3539.0278      4357.5576    
     14030   329.43158     -927.81804     -3891.0106      4359.092     
     14040   311.46968     -927.29497     -3686.4071      4358.1971    
     14050   330.40399     -927.81361     -2923.0073      4354.9866    
     14060   334.25855     -927.92916     -1695.89        4349.9304    
     14070   323.50801     -927.65585     -390.27968      4343.7762    
     14080   309.41638     -927.29803      883.65148      4337.3409    
     14090   301.57558     -927.11464      2085.8375      4331.4231    
     14100   303.67117     -927.20871      3091.8697      4326.7719    
     14110   294.02873     -926.97994      3834.2707      4324.0186    
     14120   294.76831     -927.04198      4210.9921      4323.6339    
     14130   350.99903     -928.66257      3955.8669      4325.8575    
     14140   384.8347      -929.71448      3072.398       4330.5586    
     14150   335.01151     -928.49088      1680.9071      4337.2238    
     14160   335.06931     -928.66991     -470.83436      4344.9826    
     14170   331.52984     -928.7663      -2725.3357      4352.5261    
     14180   259.18939     -926.91762     -4318.5388      4358.459     
     14190   243.72223     -926.58941     -5219.6368      4361.7404    
     14200   291.8161      -928.00792     -5282.5945      4361.7713    
     14210   281.87988     -927.80276     -4216.3033      4358.5025    
     14220   282.28563     -927.86483     -2597.2003      4352.5569    
     14230   335.85008     -929.3938      -952.5737       4344.9208    
     14240   327.95592     -929.21748      872.38827      4336.642     
     14250   278.43865     -927.87474      2729.3834      4328.8608    
     14260   275.43457     -927.80411      4119.8292      4322.7141    
     14270   298.3158      -928.44301      4892.4117      4319.0708    
     14280   295.09577     -928.36071      5127.5833      4318.4342    
     14290   281.34386     -927.98968      4744.0702      4320.9747    
     14300   318.56458     -929.03755      3489.0592      4326.4728    
     14310   335.66596     -929.53366      1702.1131      4334.2048    
     14320   297.08865     -928.48773     -294.0157       4343.0971    
     14330   297.30564     -928.50841     -2464.1737      4351.9025    
     14340   329.25198     -929.40768     -4409.4388      4359.2576    
     14350   279.76862     -928.05087     -5460.4414      4363.9385    
     14360   249.71284     -927.23165     -5814.9467      4365.2203    
     14370   277.6266      -928.01682     -5518.2895      4362.838     
     14380   280.71258     -928.10683     -4277.1361      4356.9698    
     14390   264.41607     -927.64521     -2189.9271      4348.3846    
     14400   289.45426     -928.30717      243.07349      4338.367     
     14410   289.08975     -928.23269      2855.8902      4328.4469    
     14420   299.7322      -928.44737      5047.2922      4320.2294    
     14430   322.73971     -929.0016       6420.8799      4315.0684    
     14440   319.86712     -928.85524      6793.535       4313.8276    
     14450   335.65719     -929.2563       5900.8153      4316.7554    
     14460   338.59206     -929.32666      4060.4027      4323.3621    
     14470   290.75726     -928.00061      1847.8034      4332.5815    
     14480   267.94526     -927.35628     -629.72598      4343.0642    
     14490   287.60512     -927.86097     -3092.3105      4353.2732    
     14500   299.97362     -928.13982     -4905.635       4361.6699    
     14510   305.70144     -928.23072     -5962.2365      4367.0698    
     14520   302.10357     -928.07118     -6388.3049      4368.7467    
     14530   287.35547     -927.61229     -5976.5601      4366.4034    
     14540   297.58049     -927.84785     -4600.3771      4360.2803    
     14550   300.03762     -927.85187     -2384.2814      4351.2347    
     14560   307.49742     -927.97179      141.01782      4340.6387    
     14570   327.97299     -928.42684      2578.5956      4330.0667    
     14580   316.90868     -927.99404      4704.9296      4321.0398    
     14590   295.9078      -927.29136      6198.3808      4314.8704    
     14600   305.76889     -927.4522       6806.6877      4312.4834    
     14610   330.27697     -928.02691      6445.1111      4314.2767    
     14620   348.86543     -928.45535      5171.8819      4320.0687    
     14630   336.99643     -928.06255      3249.1876      4329.1322    
     14640   330.73617     -927.84003      705.9808       4340.3078    
     14650   339.31193     -928.02843     -2229.491       4352.0316    
     14660   319.89758     -927.44128     -4849.0668      4362.4795    
     14670   287.35084     -926.49501     -6611.4077      4369.984     
     14680   323.04534     -927.45707     -7572.4665      4373.3657    
     14690   336.62166     -927.83351     -7208.5796      4372.003     
     14700   296.03117     -926.73754     -5511.2578      4366.0978    
     14710   310.65642     -927.183       -3248.5404      4356.6765    
     14720   353.93165     -928.42928     -721.32148      4345.1678    
     14730   309.45542     -927.24706      2033.0115      4333.1799    
     14740   288.75392     -926.71981      4328.5319      4322.4032    
     14750   339.09029     -928.18416      6089.4138      4314.2684    
     14760   320.56049     -927.78339      7423.5384      4309.8774    
     14770   279.65078     -926.78842      7636.8879      4310.0281    
     14780   336.3482      -928.54555      6293.8989      4314.8535    
     14790   356.02575     -929.33714      4203.1901      4323.6119    
     14800   299.9801      -928.01997      1754.0212      4335.0656    
     14810   306.21832     -928.38164     -1250.0098      4347.691     
     14820   329.20915     -929.17481     -4224.2087      4359.6299    
     14830   301.55167     -928.52485     -6513.4907      4369.0068    
     14840   280.44411     -928.02383     -7863.7553      4374.3341    
     14850   281.10621     -928.11823     -8069.3785      4374.7211    
     14860   265.70579     -927.76419     -7082.1206      4370.0168    
     14870   253.15822     -927.47658     -5106.4533      4360.8368    
     14880   261.6056      -927.74272     -2264.0176      4348.4491    
     14890   289.72261     -928.51453      1081.8912      4334.6548    
     14900   313.48577     -929.13198      4395.3192      4321.5413    
     14910   306.58324     -928.88696      7205.0532      4311.1503    
     14920   305.8547      -928.82624      8807.3552      4305.1709    
     14930   327.01566     -929.40718      8771.0027      4304.5571    
     14940   301.02176     -928.71541      7467.5299      4309.3184    
     14950   273.40095     -927.99069      5131.6013      4318.6911    
     14960   299.96619     -928.75487      1912.7566      4331.2656    
     14970   296.37799     -928.65092     -1393.941       4345.1002    
     14980   270.64435     -927.90279     -4298.349       4358.1368    
     14990   282.23711     -928.16822     -6610.1991      4368.52      
     15000   302.04747     -928.65752     -7956.9082      4374.7661    
     15010   278.92409     -927.97043     -8065.3621      4376.0083    
     15020   278.16507     -927.92235     -7249.3769      4372.1495    
     15030   298.99264     -928.47464     -5491.9916      4363.7305    
     15040   296.94681     -928.38008     -2704.6258      4351.9073    
     15050   294.30725     -928.24402      674.58235      4338.4553    
     15060   323.00004     -928.94695      3783.4644      4325.4714    
     15070   327.50389     -928.9664       6149.6859      4314.8693    
     15080   296.92044     -928.02971      7567.4033      4308.0814    
     15090   280.30286     -927.5036       7995.783       4305.9518    
     15100   280.43961     -927.45692      7435.8645      4308.728     
     15110   298.96675     -927.92511      5795.3026      4316.0576    
     15120   318.50139     -928.41387      3364.1803      4326.9562    
     15130   329.05969     -928.64305      512.91285      4339.9439    
     15140   319.00142     -928.28944     -2494.594       4353.2514    
     15150   324.90082     -928.37322     -5409.019       4364.9792    
     15160   301.68329     -927.65384     -7484.5277      4373.3012    
     15170   274.48384     -926.84287     -8356.0895      4376.9       
     15180   295.14068     -927.37825     -7992.8361      4375.223     
     15190   318.89142     -928.01028     -6216.6926      4368.5455    
     15200   330.56067     -928.31269     -3480.6661      4358.0215    
     15210   348.50237     -928.79077     -548.57479      4345.3901    
     15220   313.82725     -927.80556      2349.097       4332.5234    
     15230   302.25635     -927.45641      4717.6773      4321.209     
     15240   322.50471     -927.99333      6414.4527      4312.8885    
     15250   285.45261     -926.95346      7531.1904      4308.5803    
     15260   289.39813     -927.06965      7467.5769      4308.8978    
     15270   347.34387     -928.70866      6170.4506      4313.7686    
     15280   309.20038     -927.70494      4408.8892      4322.4272    
     15290   278.32803     -926.90552      2039.3572      4333.7665    
     15300   345.32745     -928.81795     -1009.9125      4346.2975    
     15310   341.32541     -928.77418     -3745.4845      4358.1582    
     15320   286.94446     -927.34453     -5798.4568      4367.6288    
     15330   320.97192     -928.39597     -7328.8498      4373.3871    
     15340   327.49055     -928.74044     -7729.9949      4374.5104    
     15350   281.82266     -927.66442     -6889.2768      4370.7826    
     15360   272.75991     -927.59498     -5221.3333      4362.769     
     15370   297.32681     -928.44651     -2844.381       4351.5847    
     15380   296.46294     -928.56457      154.37942      4338.7839    
     15390   281.35192     -928.24157      3237.7151      4326.2482    
     15400   289.62026     -928.53071      5803.3587      4315.8594    
     15410   306.50042     -929.05043      7427.241       4309.1433    
     15420   292.70569     -928.72829      7867.8533      4307.0282    
     15430   272.19196     -928.22512      7105.7836      4309.7272    
     15440   289.4747      -928.77229      5292.5174      4316.7371    
     15450   277.5979      -928.49739      2884.2119      4326.9392    
     15460   248.83598     -927.72108      208.30849      4338.84      
     15470   286.65199     -928.75604     -2524.6401      4350.7668    
     15480   331.88998     -929.9743      -4869.2765      4361.0178    
     15490   311.14572     -929.36988     -6333.5372      4368.1419    
     15500   275.61582     -928.37228     -6909.279       4371.2288    
     15510   281.59835     -928.53831     -6775.7681      4369.9408    
     15520   285.31576     -928.64629     -5724.856       4364.435     
     15530   269.78938     -928.2154      -3676.9047      4355.4531    
     15540   263.57992     -928.01936     -1033.774       4344.3326    
     15550   295.88178     -928.85684      1667.7098      4332.7482    
     15560   307.71976     -929.09734      4160.4261      4322.3821    
     15570   280.17445     -928.23855      6060.7637      4314.7327    
     15580   301.3131      -928.73744      6824.5747      4310.884     
     15590   305.73591     -928.78029      6647.7371      4311.2535    
     15600   270.14818     -927.72982      5712.731       4315.6841    
     15610   278.31592     -927.89594      3909.426       4323.5469    
     15620   301.82065     -928.46379      1547.8992      4333.7141    
     15630   301.15041     -928.34079     -942.21737      4344.7203    
     15640   305.07232     -928.33535     -3256.7729      4355.0116    
     15650   309.82443     -928.35148     -5094.9324      4363.1498    
     15660   299.68358     -927.96816     -6228.5974      4368.002     
     15670   297.90776     -927.84051     -6418.9108      4368.9012    
     15680   302.73854     -927.91621     -5540.2615      4365.7934    
     15690   326.4289      -928.53062     -3878.4358      4359.2902    
     15700   361.68398     -929.48327     -1880.4212      4350.4832    
     15710   327.53275     -928.52959      334.78723      4340.6764    
     15720   301.22323     -927.79992      2269.0311      4331.2471    
     15730   298.01911     -927.70825      3785.0872      4323.3801    
     15740   254.44671     -926.48507      5055.3555      4317.9921    
     15750   270.3542      -926.90687      5519.9446      4315.7782    
     15760   313.79216     -928.09269      5202.7712      4316.9696    
     15770   289.48783     -927.40679      4409.661       4321.3377    
     15780   292.7205      -927.49093      2962.7878      4328.3401    
     15790   341.78183     -928.84597      1022.2702      4337.0576    
     15800   323.17631     -928.3264      -824.09105      4346.3006    
     15810   331.18246     -928.55374     -2693.61        4354.8945    
     15820   370.27888     -929.66432     -4321.5499      4361.6834    
     15830   322.29691     -928.38628     -5168.1898      4365.6945    
     15840   287.88529     -927.49068     -5564.1948      4366.4086    
     15850   323.73801     -928.55699     -5504.3945      4363.6265    
     15860   284.02907     -927.53056     -4241.2362      4357.5006    
     15870   239.81893     -926.35275     -2177.1803      4348.872     
     15880   297.84628     -927.98455      72.670355      4339.0578    
     15890   326.9567      -928.79465      2565.5162      4329.4985    
     15900   296.9717      -927.95986      4789.7296      4321.7082    
     15910   305.14592     -928.189        5832.3092      4316.9646    
     15920   317.01979     -928.53512      5807.1918      4315.8539    
     15930   296.19256     -927.98873      5097.2736      4318.3155    
     15940   285.02799     -927.7147       3728.0817      4323.8552    
     15950   279.45215     -927.58459      2009.8046      4331.6057    
     15960   296.9645      -928.07845      118.38898      4340.4831    
     15970   333.46218     -929.09097     -1786.7635      4349.3012    
     15980   320.17877     -928.72638     -3249.8469      4356.8942    
     15990   320.76601     -928.75819     -4449.0741      4362.343     
     16000   351.0166      -929.63954     -5430.5714      4364.9135    
     16010   296.83729     -928.20353     -5482.63        4364.0745    
     16020   247.96857     -926.9095      -4601.126       4359.853     
     16030   289.23321     -928.10668     -3208.1592      4352.8455    
     16040   287.57136     -928.09738     -1120.2034      4344.0042    
     16050   251.10104     -927.09437      1373.3685      4334.6632    
     16060   304.04868     -928.54991      3359.8501      4326.3313    
     16070   342.18073     -929.59049      4715.9745      4320.2107    
     16080   293.30311     -928.23427      5550.8686      4317.0963    
     16090   277.96219     -927.82056      5477.7605      4317.4189    
     16100   308.44917     -928.68424      4480.82        4321.0728    
     16110   294.67088     -928.32079      3063.1005      4327.4268    
     16120   275.15179     -927.79096      1209.2204      4335.5668    
     16130   299.79069     -928.46848     -982.21457      4344.3237    
     16140   322.40498     -929.0772      -2898.2682      4352.3536    
     16150   287.11201     -928.07761     -4068.1991      4358.4896    
     16160   290.98626     -928.1674      -4804.8997      4361.9954    
     16170   328.62047     -929.19781     -4956.8592      4362.4535    
     16180   309.69671     -928.67147     -4179.0149      4359.8405    
     16190   290.27709     -928.14111     -2902.9947      4354.6761    
     16200   311.00193     -928.72302     -1506.4093      4347.793     
     16210   302.95797     -928.5012      -26.552245      4340.1021    
     16220   274.561       -927.70649      1430.369       4332.5375    
     16230   272.82008     -927.63701      2860.5533      4325.9995    
     16240   267.62441     -927.45084      4253.6417      4321.3545    
     16250   292.41244     -928.0837       4915.8274      4319.3824    
     16260   309.11697     -928.48498      4779.1036      4320.4443    
     16270   289.52109     -927.88192      4049.0326      4324.4238    
     16280   319.65528     -928.65939      2510.8184      4330.8169    
     16290   344.23453     -929.27633      607.66139      4338.6692    
     16300   304.46251     -928.1151      -1145.8763      4346.81      
     16310   308.64788     -928.17907     -2892.878       4354.1246    
     16320   329.69175     -928.71144     -4243.4379      4359.5444    
     16330   292.41128     -927.63644     -4707.3474      4362.2706    
     16340   305.15058     -927.96409     -4714.4936      4362.0158    
     16350   314.89414     -928.21573     -4187.5215      4358.8278    
     16360   280.70393     -927.25316     -2908.201       4353.1037    
     16370   305.18091     -927.91464     -1219.9322      4345.6733    
     16380   328.94899     -928.54608      722.37939      4337.6221    
     16390   298.04336     -927.65866      2617.869       4330.1585    
     16400   308.04396     -927.90904      3863.6647      4324.4113    
     16410   321.57153     -928.26442      4463.6442      4321.1192    
     16420   277.02823     -927.01806      4645.7303      4320.625     
     16430   282.14376     -927.15352      4115.0798      4322.9802    
     16440   325.16635     -928.33737      3009.8379      4327.8302    
     16450   323.29705     -928.27881      1711.0036      4334.4878    
     16460   328.08186     -928.41573      95.140821      4342.1193    
     16470   339.05629     -928.7353      -1698.7964      4349.7142    
     16480   326.8341      -928.42773     -3221.5302      4356.1717    
     16490   307.64331     -927.94286     -4297.3962      4360.5511    
     16500   298.8918      -927.75959     -4920.2443      4362.1936    
     16510   310.13849     -928.14718     -4920.425       4360.7479    
     16520   303.38775     -928.05279     -3961.1802      4356.2791    
     16530   265.58383     -927.0909      -2196.4056      4349.4327    
     16540   274.53228     -927.40571     -235.51944      4341.3244    
     16550   309.19445     -928.42363      1659.4858      4333.1902    
     16560   297.0988      -928.1377       3431.9133      4326.2095    
     16570   307.08844     -928.46675      4672.4294      4321.4364    
     16580   339.22779     -929.43417      5063.6942      4319.5822    
     16590   312.33768     -928.79227      4740.7956      4320.8571    
     16600   276.30143     -927.89906      3710.6445      4325.0243    
     16610   294.65916     -928.5092       1992.6864      4331.4177    
     16620   307.87072     -928.97264      56.953166      4338.9785    
     16630   277.16897     -928.20378     -1669.8871      4346.5127    
     16640   252.29516     -927.56874     -3118.0576      4352.9383    
     16650   279.97278     -928.37408     -4161.4884      4357.3579    
     16660   304.39657     -929.08774     -4484.1721      4359.149     
     16670   283.19382     -928.53775     -4006.5361      4358.1417    
     16680   288.23187     -928.71377     -3160.7142      4354.6465    
     16690   319.38925     -929.61694     -2065.946       4349.2243    
     16700   284.16068     -928.67475     -501.756        4342.6089    
     16710   257.1554      -927.94405      1084.0345      4335.7715    
     16720   291.52771     -928.89858      2291.3878      4329.6815    
     16730   306.94715     -929.31879      3271.5314      4325.0866    
     16740   281.03896     -928.59158      4044.487       4322.5756    
     16750   289.7198      -928.82639      4104.8043      4322.5685    
     16760   288.5273      -928.78383      3410.8587      4325.0752    
     16770   262.90959     -928.05548      2210.1355      4329.6558    
     16780   251.88414     -927.71047      828.4323       4335.5666    
     16790   280.49921     -928.42957     -559.48404      4341.9455    
     16800   302.01449     -928.90727     -1811.256       4347.9291    
     16810   302.92271     -928.7831      -2808.027       4352.7391    
     16820   307.32186     -928.73639     -3425.0928      4355.763     
     16830   326.93104     -929.09769     -3641.9981      4356.6259    
     16840   312.52335     -928.5184      -3352.5084      4355.2183    
     16850   275.94933     -927.34927     -2550.4971      4351.7465    
     16860   287.56931     -927.52869     -1372.9543      4346.7334    
     16870   324.55936     -928.4066       45.558081      4340.9308    
     16880   318.48768     -928.10712      1600.7203      4335.2346    
     16890   322.29662     -928.11533      2751.6881      4330.5824    
     16900   337.23397     -928.46226      3172.2581      4327.6579    
     16910   307.55956     -927.60118      3145.6719      4326.7199    
     16920   276.29474     -926.71193      2805.4717      4327.7381    
     16930   292.51531     -927.14133      2150.5835      4330.4826    
     16940   308.9321      -927.57324      1433.2607      4334.5495    
     16950   320.93537     -927.88796      646.96507      4339.4851    
     16960   342.97486     -928.4942      -448.47932      4344.778     
     16970   342.72201     -928.50173     -1677.1163      4349.7503    
     16980   322.18926     -927.96587     -2679.0368      4353.6493    
     16990   310.08904     -927.67501     -3275.7653      4355.8588    
     17000   299.12431     -927.42225     -3487.4502      4356.0098    
     17010   279.57947     -926.92763     -3179.1087      4353.9938    
     17020   302.67463     -927.61292     -2306.8133      4350.0267    
     17030   334.62539     -928.54841     -878.57218      4344.6803    
     17040   328.09527     -928.42785      763.01499      4338.8493    
     17050   315.65796     -928.15084      2049.4486      4333.5343    
     17060   331.35394     -928.66732      2815.5701      4329.522     
     17070   327.00886     -928.64694      3360.3226      4327.2939    
     17080   292.15959     -927.78528      3498.863       4327.1621    
     17090   288.25434     -927.77416      2796.5486      4329.1708    
     17100   305.54307     -928.34871      1531.126       4332.8857    
     17110   279.82331     -927.71726      343.29368      4337.547     
     17120   264.01152     -927.33692     -739.07264      4342.4068    
     17130   288.01333     -928.04319     -1728.7224      4346.7839    
     17140   300.48657     -928.42103     -2398.1534      4350.0699    
     17150   289.96605     -928.1564      -2578.5282      4351.8591    
     17160   305.52324     -928.61519     -2468.3146      4352.0321    
     17170   323.65526     -929.15145     -2085.5017      4350.6694    
     17180   317.67311     -929.02928     -1450.7468      4348.0229    
     17190   305.213       -928.73358     -738.52069      4344.4923    
     17200   298.63513     -928.59947     -53.088302      4340.527     
     17210   297.21854     -928.60587      664.30219      4336.5624    
     17220   269.07157     -927.85901      1568.1818      4333.0579    
     17230   267.65718     -927.83697      2322.7578      4330.5537    
     17240   319.51397     -929.28726      2546.292       4329.4904    
     17250   319.72995     -929.3119       2382.7967      4330.0088    
     17260   275.98817     -928.12103      1860.2513      4332.0009    
     17270   286.73114     -928.43753      853.92491      4335.1235    
     17280   277.13153     -928.17772     -81.946678      4338.7773    
     17290   229.04882     -926.83085     -754.60355      4342.3848    
     17300   254.53406     -927.50213     -1429.7975      4345.5049    
     17310   319.95477     -929.25156     -1839.64        4347.7311    
     17320   322.00849     -929.23341     -1765.5607      4348.8226    
     17330   314.58704     -928.96556     -1547.1093      4348.8101    
     17340   322.89473     -929.1415      -1370.9839      4347.8267    
     17350   319.8207      -929.00873     -1091.9946      4345.9971    
     17360   301.43977     -928.45775     -567.80044      4343.509     
     17370   282.55323     -927.88864      160.50918      4340.6946    
     17380   308.84496     -928.55892      694.16453      4337.9895    
     17390   326.63072     -928.97577      977.7313       4335.7233    
     17400   274.80416     -927.45191      1351.6901      4334.0935    
     17410   268.25082     -927.16858      1514.5633      4333.3102    
     17420   314.06556     -928.28617      1333.0811      4333.4624    
     17430   288.86295     -927.38939      1286.2173      4334.4646    
     17440   279.05925     -926.91788      1148.7499      4336.2695    
     17450   328.65766     -928.07214      670.34007      4338.7749    
     17460   333.97676     -928.00522      140.7736       4341.6988    
     17470   323.87247     -927.56447     -404.00692      4344.7097    
     17480   354.02694     -928.28494     -1068.4436      4347.4573    
     17490   359.63175     -928.36695     -1591.4817      4349.5392    
     17500   320.55576     -927.25227     -1827.6847      4350.6357    
     17510   313.57614     -927.05151     -1950.42        4350.5861    
     17520   326.67879     -927.41929     -1764.3472      4349.3298    
     17530   334.37533     -927.65312     -1218.4694      4346.9911    
     17540   324.50895     -927.41496     -464.00554      4343.9105    
     17550   332.2134      -927.67833      247.54691      4340.5517    
     17560   339.73238     -927.95551      968.03058      4337.3666    
     17570   314.39076     -927.33355      1694.7044      4334.8073    
     17580   312.77316     -927.37472      2013.3691      4333.2998    
     17590   322.81559     -927.75069      1916.8794      4333.0403    
     17600   291.94866     -926.99037      1592.102       4333.978     
     17610   300.78029     -927.32421      969.15613      4335.9004    
     17620   325.20191     -928.09663      349.54365      4338.4331    
     17630   294.64489     -927.34045      1.6294421      4341.2062    
     17640   315.36575     -928.00166     -579.65575      4343.9673    
     17650   360.01287     -929.34818     -1192.7157      4346.3638    
     17660   310.85596     -928.10432     -1373.619       4348.039     
     17670   292.4548      -927.69937     -1562.3775      4348.8501    
     17680   326.7407      -928.75836     -1790.7546      4348.6757    
     17690   291.68737     -927.88731     -1521.0307      4347.4085    
     17700   279.01178     -927.61564     -1078.4721      4345.1984    
     17710   317.8336      -928.7667      -547.10494      4342.3215    
     17720   304.6052      -928.46963      397.40865      4339.1369    
     17730   289.8626      -928.11998      1258.9158      4336.2088    
     17740   310.11669     -928.73702      1614.4299      4334.0517    
     17750   306.85648     -928.70041      1723.4289      4332.904     
     17760   304.7132      -928.69588      1602.6589      4332.831     
     17770   286.39115     -928.24023      1290.1972      4333.7576    
     17780   236.7901      -926.89491      896.46234      4335.4952    
     17790   262.77173     -927.62432      288.85446      4337.7873    
     17800   310.93728     -928.9534      -269.64089      4340.2679    
     17810   280.65965     -928.09788     -424.96105      4342.6104    
     17820   299.22548     -928.59681     -691.43891      4344.6836    
     17830   350.05561     -929.99331     -1132.2143      4346.3168    
     17840   323.847       -929.27098     -1323.0065      4347.2582    
     17850   287.81649     -928.28831     -1337.6402      4347.3814    
     17860   310.32873     -928.93374     -1388.396       4346.6622    
     17870   299.58854     -928.65825     -1131.6605      4345.0916    
     17880   264.51566     -927.70254     -606.93758      4342.8292    
     17890   274.2419      -927.97783     -209.36099      4340.1821    
     17900   287.39166     -928.33405      190.47132      4337.4087    
     17910   265.48168     -927.70406      911.85755      4334.7794    
     17920   262.32246     -927.5778       1692.8441      4332.7312    
     17930   316.86746     -929.03207      2059.5011      4331.7254    
     17940   337.31986     -929.53017      2109.2627      4331.9986    
     17950   288.55738     -928.11736      1960.4596      4333.5931    
     17960   303.28494     -928.46895      1211.9776      4336.3919    
     17970   339.44165     -929.40132      142.45647      4339.9452    
     17980   283.17193     -927.76764     -708.82287      4343.616     
     17990   263.45862     -927.14627     -1537.7783      4346.8526    
     18000   320.59159     -928.62724     -2193.5064      4349.1369    
     18010   317.04091     -928.39864     -2149.4048      4350.0854    
     18020   283.9581      -927.35646     -1805.7531      4349.699     
     18030   319.29535     -928.20443     -1628.1805      4348.1636    
     18040   317.93195     -928.01893     -1101.8428      4345.6259    
     18050   298.33361     -927.34033     -253.98144      4342.4147    
     18060   327.78651     -928.02715      573.26001      4339.0438    
     18070   339.31953     -928.22244      1367.8452      4336.0364    
     18080   332.75996     -927.94466      1886.9356      4333.8751    
     18090   322.78934     -927.60072      2115.4559      4332.8859    
     18100   301.59542     -926.96491      2127.9383      4333.2182    
     18110   313.33687     -927.25395      1710.0074      4334.8694    
     18120   345.20607     -928.11336      935.61543      4337.5852    
     18130   314.73418     -927.2597       285.66607      4340.9139    
     18140   309.2715      -927.11178     -466.34976      4344.4331    
     18150   347.46799     -928.18692     -1378.843       4347.6649    
     18160   330.27403     -927.74335     -1935.5307      4350.0635    
     18170   317.47498     -927.43795     -2184.8301      4351.2677    
     18180   321.55423     -927.61415     -2245.6017      4351.1074    
     18190   290.58607     -926.81818     -1885.8934      4349.5563    
     18200   303.13347     -927.22534     -1244.3294      4346.8288    
     18210   334.52227     -928.16062     -361.73402      4343.328     
     18220   331.23792     -928.14408      700.80127      4339.6088    
     18230   336.69953     -928.38234      1560.1505      4336.3175    
     18240   345.12609     -928.71977      1990.2701      4333.9812    
     18250   320.99721     -928.16061      2103.6504      4332.8798    
     18260   309.69333     -927.94982      1840.1456      4333.0809    
     18270   295.95078     -927.65649      1315.679       4334.4307    
     18280   275.86133     -927.16085      724.34254      4336.6163    
     18290   291.31578     -927.63168      101.1439       4339.2695    
     18300   302.18904     -927.96205     -395.07253      4342.0118    
     18310   307.67475     -928.13873     -838.427        4344.5248    
     18320   302.65084     -928.0218      -1171.1549      4346.5326    
     18330   297.98757     -927.91179     -1416.4486      4347.8198    
     18340   321.60689     -928.58792     -1613.8532      4348.2251    
     18350   334.14434     -928.96954     -1591.8585      4347.6287    
     18360   285.70471     -927.66414     -1155.9003      4346.0542    
     18370   285.28007     -927.68318     -633.9371       4343.7513    
     18380   335.51369     -929.10922     -36.238843      4341.0483    
     18390   310.27429     -928.44838      689.10244      4338.3262    
     18400   283.86123     -927.75402      1157.6849      4336.0174    
     18410   314.25922     -928.63625      1373.0192      4334.4178    
     18420   304.79978     -928.41584      1685.7994      4333.6874    
     18430   278.76634     -927.73232      1763.1198      4334.0069    
     18440   306.26926     -928.53255      1230.2333      4335.4077    
     18450   315.38522     -928.82596      538.184        4337.5894    
     18460   282.26312     -927.9481       4.6983618      4340.1396    
     18470   262.90854     -927.44067     -491.12638      4342.716     
     18480   286.41909     -928.10884     -1033.0688      4345.0014    
     18490   314.26641     -928.89264     -1501.6762      4346.6571    
     18500   294.88975     -928.36833     -1582.205       4347.4012    
     18510   287.91328     -928.18745     -1398.7026      4347.1695    
     18520   327.40161     -929.29967     -1232.8465      4346.0536    
     18530   309.06661     -928.81714     -827.07965      4344.1718    
     18540   256.51776     -927.38275     -225.09809      4341.773     
     18550   285.5766      -928.2025       236.16647      4339.2128    
     18560   317.17718     -929.08613      788.87528      4336.7963    
     18570   290.93407     -928.3648       1479.9946      4334.877     
     18580   309.52266     -928.89234      1673.1538      4333.853     
     18590   324.56529     -929.33109      1465.3578      4333.8586    
     18600   275.37394     -927.9943       1320.5517      4334.799     
     18610   266.45182     -927.76943      987.54623      4336.5738    
     18620   305.87373     -928.87902      331.63108      4338.9725    
     18630   301.17093     -928.76251     -297.10229      4341.61      
     18640   269.34109     -927.89107     -863.14052      4344.0925    
     18650   275.87202     -928.07423     -1463.9469      4346.053     
     18660   299.67916     -928.72586     -1855.0261      4347.1207    
     18670   287.18708     -928.36411     -1823.7306      4347.0514    
     18680   261.95153     -927.64028     -1432.8086      4345.8513    
     18690   278.34956     -928.0549      -830.3837       4343.7493    
     18700   308.01452     -928.81435     -24.089506      4341.1209    
     18710   316.56198     -928.97584      853.0319       4338.4641    
     18720   327.04271     -929.19206      1547.4704      4336.3188    
     18730   337.16957     -929.40732      1795.3593      4335.1124    
     18740   330.09592     -929.16304      1534.8062      4335.0046    
     18750   302.66062     -928.36997      1093.7249      4335.8618    
     18760   273.74945     -927.53809      583.8369       4337.4208    
     18770   273.64887     -927.49559     -61.300916      4339.3627    
     18780   271.54061     -927.3781      -590.08886      4341.2998    
     18790   272.00876     -927.3146      -831.06828      4342.9077    
     18800   301.91039     -928.04862     -956.07867      4344.0174    
     18810   317.7412      -928.37935     -844.9658       4344.5539    
     18820   303.30091     -927.87533     -611.06343      4344.5733    
     18830   306.41092     -927.86646     -457.48391      4344.2066    
     18840   328.40293     -928.38377     -328.31356      4343.5506    
     18850   330.89395     -928.37217     -93.759978      4342.6913    
     18860   321.11609     -928.03922      137.27803      4341.7695    
     18870   331.69288     -928.28919      217.31359      4340.9194    
     18880   319.35998     -927.91801      410.05336      4340.2104    
     18890   317.94098     -927.86376      553.59179      4339.7557    
     18900   338.63305     -928.43829      489.86743      4339.6391    
     18910   305.40926     -927.5311       481.61477      4339.8424    
     18920   284.78652     -926.97651      389.22166      4340.3553    
     18930   330.43577     -928.26484      38.062361      4341.112     
     18940   323.8112      -928.11552     -246.04214      4341.9156    
     18950   277.95911     -926.8834      -483.6047       4342.5843    
     18960   294.49637     -927.38106     -768.72255      4342.9572    
     18970   306.02449     -927.74128     -625.03361      4342.8786    
     18980   285.54967     -927.21254     -145.28842      4342.4283    
     18990   323.59227     -928.31452      33.867776      4341.8647    
     19000   353.46994     -929.21602      138.6521       4341.3171    
     19010   325.72601     -928.55387      380.24172      4340.8648    
     19020   304.61434     -928.09553      412.98846      4340.641     
     19030   314.0098      -928.50229      83.368912      4340.661     
     19040   301.19279     -928.3072      -257.28482      4340.7405    
     19050   264.30364     -927.42938     -269.20188      4340.6825    
     19060   260.58421     -927.44073     -12.759228      4340.4731    
     19070   316.91491     -929.11121      152.79144      4340.2511    
     19080   335.1265      -929.73591      195.05932      4340.1216    
     19090   288.18161     -928.54248      197.32581      4340.1188    
     19100   290.49418     -928.69321      28.562285      4340.2374    
     19110   306.49497     -929.21437     -150.16326      4340.3809    
     19120   252.13706     -927.75798     -123.99585      4340.4517    
     19130   249.74763     -927.71548     -246.94079      4340.4398    
     19140   287.60116     -928.76984     -344.20918      4340.2773    
     19150   282.83842     -928.62876     -135.18831      4339.9171    
     19160   279.24357     -928.51411      89.003516      4339.4692    
     19170   296.17946     -928.96326      185.78425      4339.0667    
     19180   295.61711     -928.92388      306.15071      4338.7817    
     19190   285.81979     -928.62779      440.94668      4338.6923    
     19200   291.56081     -928.76023      441.9736       4338.8785    
     19210   301.29875     -929.00025      366.85323      4339.3522    
     19220   311.51396     -929.25661      209.50539      4340.07      
     19230   287.08105     -928.55426      33.75481       4340.9436    
     19240   276.6194      -928.23748     -308.47019      4341.8541    
     19250   302.63032     -928.92578     -705.9166       4342.5907    
     19260   294.2445      -928.65539     -772.96555      4342.9199    
     19270   262.75921     -927.74184     -587.71912      4342.7848    
     19280   276.72434     -928.08007     -554.76085      4342.2672    
     19290   287.73343     -928.31993     -459.31498      4341.3936    
     19300   286.52571     -928.21275     -34.55552       4340.2328    
     19310   311.5423      -928.82879      393.93551      4339.0278    
     19320   316.63587     -928.89244      601.8536       4338.0386    
     19330   288.8911      -928.05542      715.83067      4337.4098    
     19340   277.28083     -927.66939      832.87902      4337.2281    
     19350   305.139       -928.37211      809.41888      4337.5684    
     19360   320.67093     -928.73062      683.60018      4338.4325    
     19370   296.49581     -927.9975       479.92038      4339.7557    
     19380   304.37756     -928.1618       37.787525      4341.41      
     19390   343.80573     -929.20662     -462.7241       4343.1324    
     19400   312.69651     -928.30981     -710.8585       4344.6258    
     19410   285.88591     -927.54513     -1013.0304      4345.7056    
     19420   314.26275     -928.31348     -1329.7018      4346.1695    
     19430   302.66662     -927.9744      -1234.908       4345.8268    
     19440   277.4736      -927.25937     -934.91113      4344.7046    
     19450   301.89229     -927.91843     -646.70002      4342.9608    
     19460   287.81779     -927.50212     -42.307013      4340.7873    
     19470   288.42068     -927.48937      638.76843      4338.5431    
     19480   343.22619     -928.98006      1120.1652      4336.6433    
     19490   333.82198     -928.70314      1585.495       4335.4164    
     19500   302.85962     -927.84603      1726.3871      4335.1559    
     19510   340.01551     -928.89522      1315.1952      4335.9587    
     19520   317.91244     -928.31516      913.72251      4337.6288    
     19530   281.43017     -927.34065      284.0043       4339.9157    
     19540   307.80955     -928.11143     -651.24768      4342.4271    
     19550   292.04958     -927.71263     -1100.4631      4344.6221    
     19560   267.66339     -927.06817     -1182.1054      4346.196     
     19570   303.66757     -928.09769     -1385.796       4347.0492    
     19580   315.97968     -928.47529     -1380.5812      4347.0574    
     19590   318.15602     -928.59164     -1105.0316      4346.2056    
     19600   319.09959     -928.70542     -678.85319      4344.6427    
     19610   295.99761     -928.18392     -135.73802      4342.6248    
     19620   311.45139     -928.77182      242.08167      4340.4711    
     19630   325.04935     -929.37368      447.30968      4338.4183    
     19640   265.74115     -927.96518      818.47972      4336.6216    
     19650   249.16618     -927.69363      1066.3153      4335.3035    
     19660   292.93946     -929.07843      985.8174       4334.6173    
     19670   271.32614     -928.61991      1020.6298      4334.5555    
     19680   244.31925     -927.95923      1042.4535      4335.1451    
     19690   289.3307      -929.27046      686.11261      4336.3908    
     19700   301.77344     -929.66581      285.35774      4338.1033    
     19710   268.51291     -928.77873      7.0580462      4340.048     
     19720   274.18052     -928.95628     -466.35835      4342.0317    
     19730   290.7584      -929.42399     -1000.4724      4343.7618    
     19740   269.40285     -928.82795     -1207.4494      4344.9163    
     19750   268.84006     -928.7974      -1223.3725      4345.3406    
     19760   305.62504     -929.79224     -1173.1269      4345.0024    
     19770   301.91296     -929.6597      -901.4264       4343.9303    
     19780   258.24277     -928.41719     -499.98753      4342.2785    
     19790   259.70383     -928.41566     -214.89957      4340.2766    
     19800   290.03955     -929.19432      171.14023      4338.1131    
     19810   266.97447     -928.47561      794.65429      4336.0407    
     19820   252.06795     -927.97639      1173.6164      4334.426     
     19830   284.28285     -928.76561      1271.3793      4333.5152    
     19840   297.14143     -928.99977      1415.773       4333.4021    
     19850   282.96742     -928.48863      1463.9078      4334.1833    
     19860   288.4801      -928.53053      1147.1951      4335.888     
     19870   287.08391     -928.38196      614.62455      4338.3425    
     19880   294.78747     -928.49152     -43.392763      4341.2256    
     19890   314.20406     -928.93145     -677.53647      4344.1356    
     19900   312.29603     -928.79219     -1207.197       4346.6746    
     19910   312.3791      -928.72662     -1738.7093      4348.4908    
     19920   309.88916     -928.60453     -2046.7084      4349.2467    
     19930   280.91373     -927.75705     -1916.0405      4348.7438    
     19940   290.15883     -927.97324     -1613.2895      4347.0286    
     19950   299.76709     -928.19581     -998.95294      4344.2883    
     19960   267.01352     -927.23938      57.414215      4340.9111    
     19970   290.29761     -927.83188      966.21975      4337.5236    
     19980   348.56265     -929.38797      1544.1479      4334.6905    
     19990   320.46308     -928.56233      2155.5163      4332.8098    
     20000   310.89336     -928.27391      2256.5962      4332.2425    
     20010   321.15033     -928.54776      1758.4478      4333.0639    
     20020   269.31057     -927.10172      1178.6164      4335.0088    
     20030   255.07551     -926.68989      520.57874      4337.7235    
     20040   310.65146     -928.19913     -220.51816      4340.7995    
     20050   302.08999     -927.91762     -648.19546      4343.7989    
     20060   304.84003     -927.95481     -990.7751       4346.4328    
     20070   350.07059     -929.17641     -1388.7113      4348.471     
     20080   342.5416      -928.95476     -1610.3155      4349.6683    
     20090   314.79553     -928.19769     -1699.8147      4349.8703    
     20100   309.27324     -928.07171     -1681.7419      4349.0057    
     20110   298.63206     -927.80806     -1350.672       4347.0898    
     20120   311.99873     -928.21678     -808.86889      4344.3157    
     20130   314.28281     -928.32691     -88.084212      4341.0199    
     20140   291.56384     -927.74964      713.50153      4337.6487    
     20150   280.79461     -927.50161      1408.985       4334.698     
     20160   290.82969     -927.83055      1814.1693      4332.5976    
     20170   289.70036     -927.84997      1999.948       4331.6155    
     20180   298.8162      -928.16136      1926.2449      4331.874     
     20190   284.66394     -927.83153      1668.4394      4333.3448    
     20200   299.09267     -928.29969      1121.6918      4335.8702    
     20210   334.82444     -929.38209      387.30751      4339.123     
     20220   302.89882     -928.61218     -319.05292      4342.6609    
     20230   270.775       -927.83627     -1096.2229      4346.0323    
     20240   306.48311     -928.95153     -1849.6643      4348.7463    
     20250   307.36152     -929.12078     -2138.5175      4350.3446    
     20260   279.27517     -928.48139     -2076.8798      4350.6256    
     20270   306.40749     -929.37441     -2035.5563      4349.5932    
     20280   308.25185     -929.571       -1719.3955      4347.2844    
     20290   270.83844     -928.65929     -1034.6578      4343.8954    
     20300   245.19059     -928.03488     -161.71349      4339.8438    
     20310   255.15365     -928.3647       652.43861      4335.6621    
     20320   267.36163     -928.73112      1463.113       4331.8677    
     20330   256.04966     -928.42303      2230.2915      4328.9698    
     20340   252.21294     -928.30199      2745.047       4327.444     
     20350   303.54159     -929.69995      2747.2201      4327.6053    
     20360   302.90454     -929.65259      2493.0773      4329.4865    
     20370   250.69116     -928.17546      1934.2918      4332.9411    
     20380   286.45915     -929.13208      714.76585      4337.6089    
     20390   320.30052     -930.01894     -585.93071      4342.7699    
     20400   285.5137      -929.00322     -1560.2935      4347.6298    
     20410   281.52919     -928.84544     -2489.0334      4351.5476    
     20420   300.59487     -929.32208     -3266.5594      4353.9293    
     20430   275.66046     -928.57791     -3437.0512      4354.2946    
     20440   263.73523     -928.19694     -3069.3983      4352.513     
     20450   273.41659     -928.40592     -2202.3951      4348.8054    
     20460   275.06552     -928.37932     -948.00066      4343.7072    
     20470   271.04757     -928.18528      421.6202       4337.9919    
     20480   275.92762     -928.22805      1780.4964      4332.5156    
     20490   303.78688     -928.90155      2944.0406      4328.1234    
     20500   323.93414     -929.36805      3603.9265      4325.5307    
     20510   290.6255      -928.37428      3664.6542      4325.1554    
     20520   275.13153     -927.89297      3083.2905      4327.0457    
     20530   300.97073     -928.561        2064.5296      4330.8661    
     20540   289.0199      -928.17935      995.20247      4336.0185    
     20550   285.29809     -928.02865     -167.44528      4341.8387    
     20560   317.2991      -928.86667     -1459.5023      4347.5957    
     20570   319.64534     -928.8867      -2550.7109      4352.4898    
     20580   306.09237     -928.48041     -3283.7786      4355.8262    
     20590   301.38544     -928.33104     -3642.3995      4357.1244    
     20600   288.51591     -927.96107     -3513.8814      4356.1477    
     20610   283.03754     -927.79678     -2833.36        4352.9687    
     20620   300.34707     -928.26074     -1714.7339      4348.0047    
     20630   308.46216     -928.46547     -333.78975      4341.9504    
     20640   297.33659     -928.13416      1182.7043      4335.67      
     20650   297.52201     -928.11351      2608.0883      4330.105     
     20660   309.42736     -928.41694      3583.705       4326.1315    
     20670   313.04123     -928.49851      3895.5374      4324.3519    
     20680   294.08983     -927.96401      3693.0643      4324.981     
     20690   287.46197     -927.7755       3033.6745      4327.9106    
     20700   295.86543     -928.00051      1871.8498      4332.7425    
     20710   290.08995     -927.8236       419.4704       4338.7784    
     20720   292.49894     -927.86348     -1062.4492      4345.1273    
     20730   319.19786     -928.56991     -2280.0347      4350.8704    
     20740   320.95991     -928.5872      -2995.3098      4355.2421    
     20750   318.13669     -928.49062     -3360.5816      4357.7649    
     20760   338.40562     -929.05343     -3539.9864      4358.1818    
     20770   330.34886     -928.8558      -3341.078       4356.3776    
     20780   292.92818     -927.86206     -2648.0195      4352.4756    
     20790   274.58901     -927.39805     -1565.3429      4346.9023    
     20800   276.81666     -927.49442     -191.10599      4340.3354    
     20810   271.90867     -927.37677      1367.4262      4333.6355    
     20820   286.77071     -927.79354      2822.036       4327.7657    
     20830   314.6145      -928.56715      3958.0209      4323.6263    
     20840   310.15593     -928.45468      4624.8429      4321.9258    
     20850   304.58184     -928.32883      4442.3262      4323.0687    
     20860   323.37032     -928.89913      3403.0347      4326.9597    
     20870   318.91539     -928.84655      1921.5365      4332.9961    
     20880   284.78171     -927.97836      254.50248      4340.2823    
     20890   288.06732     -928.14413     -1569.5425      4347.7785    
     20900   316.24542     -929.00742     -3236.021       4354.347     
     20910   292.58082     -928.44411     -4274.6077      4358.9454    
     20920   258.21273     -927.57729     -4716.0957      4360.8912    
     20930   286.76876     -928.45652     -4706.5024      4359.8726    
     20940   308.75554     -929.16558     -3841.0702      4355.909     
     20950   272.96199     -928.26842     -2154.4364      4349.5415    
     20960   265.97258     -928.14666     -266.39712      4341.8016    
     20970   307.91397     -929.37033      1470.8571      4333.8624    
     20980   298.54035     -929.16363      3166.2085      4326.8256    
     20990   273.52299     -928.51381      4446.3704      4321.7301    
     21000   285.23819     -928.87977      4904.0793      4319.3527    
     21010   287.21852     -928.97657      4620.119       4319.9937    
     21020   274.74596     -928.67113      3729.0387      4323.4989    
     21030   265.98634     -928.45753      2411.1651      4329.3442    
     21040   278.8684      -928.82656      756.6763       4336.7296    
     21050   292.79313     -929.2058      -1081.6522      4344.6362    
     21060   272.80318     -928.62732     -2750.7227      4351.9261    
     21070   256.3457      -928.13        -4032.4525      4357.5443    
     21080   301.81546     -929.33737     -4921.1082      4360.6555    
     21090   305.06835     -929.36602     -4942.1639      4360.7049    
     21100   251.37738     -927.82043     -4018.8437      4357.6696    
     21110   276.87921     -928.46333     -2740.3581      4352.0917    
     21120   316.77058     -929.47142     -1079.4871      4344.7851    
     21130   289.21042     -928.59125      1019.9264      4336.807     
     21140   287.30833     -928.41893      2828.6911      4329.437     
     21150   325.71877     -929.35062      3939.0946      4323.7838    
     21160   297.725       -928.44589      4691.3468      4320.5648    
     21170   276.01059     -927.74026      4778.2084      4320.2331    
     21180   304.48718     -928.43395      4004.7669      4322.8434    
     21190   298.72694     -928.18043      2801.6095      4327.9587    
     21200   271.29592     -927.33726      1296.9646      4334.8531    
     21210   287.77695     -927.71007     -583.98309      4342.5904    
     21220   298.98888     -927.9267      -2307.0606      4350.0208    
     21230   291.75174     -927.63683     -3455.9391      4356.0719    
     21240   316.46466     -928.24654     -4217.0484      4359.9843    
     21250   342.43737     -928.91217     -4361.3729      4361.2736    
     21260   327.49484     -928.47507     -3848.279       4359.8374    
     21270   328.0018      -928.49439     -3088.7281      4355.967     
     21280   326.28866     -928.47017     -1979.7902      4350.1487    
     21290   283.70241     -927.31195     -369.13824      4343.0959    
     21300   286.36775     -927.39614      1189.838       4335.792     
     21310   327.11904     -928.53011      2534.0005      4329.2091    
     21320   308.94096     -928.03256      3849.0835      4324.2022    
     21330   284.67378     -927.36981      4660.618       4321.5651    
     21340   314.27331     -928.20916      4592.5298      4321.7868    
     21350   313.29386     -928.21037      3909.8776      4324.8569    
     21360   295.49632     -927.75114      2499.4425      4330.3583    
     21370   304.9954      -928.0468       646.55404      4337.4429    
     21380   299.05766     -927.90534     -1016.5493      4344.996     
     21390   299.45673     -927.93286     -2475.0054      4351.9683    
     21400   310.99047     -928.2691      -3742.1569      4357.4245    
     21410   298.92039     -927.95475     -4386.8042      4360.5725    
     21420   303.93332     -928.12329     -4392.4237      4360.9845    
     21430   323.44581     -928.70855     -3891.4547      4358.6366    
     21440   313.22677     -928.48386     -2810.7085      4353.8461    
     21450   305.40064     -928.33155     -1277.3756      4347.2907    
     21460   318.74249     -928.77186      315.68078      4339.9178    
     21470   297.06539     -928.24091      1881.1075      4332.7299    
     21480   281.12238     -927.86102      3223.7563      4326.6976    
     21490   296.9757      -928.36335      4100.3021      4322.6452    
     21500   282.57005     -928.02885      4525.7544      4321.1245    
     21510   272.41468     -927.80985      4256.0321      4322.3939    
     21520   305.36247     -928.79134      3197.7603      4326.2935    
     21530   309.18726     -928.97215      1837.9935      4332.2098    
     21540   282.07283     -928.29278      380.74907      4339.3184    
     21550   286.03861     -928.46682     -1371.1727      4346.6972    
     21560   295.06995     -928.77695     -3102.4276      4353.2576    
     21570   272.85284     -928.21665     -4224.138       4357.9256    
     21580   265.96359     -928.07812     -4631.5827      4359.9764    
     21590   298.37685     -929.03721     -4459.3946      4359.1267    
     21600   306.53639     -929.34144     -3613.6523      4355.4816    
     21610   264.99883     -928.2705      -2061.7063      4349.578     
     21620   276.45468     -928.66175     -307.92001      4342.3681    
     21630   322.97288     -930.03541      1377.5675      4334.9462    
     21640   291.58879     -929.26227      2969.0328      4328.3735    
     21650   258.9763      -928.45193      3994.9283      4323.6169    
     21660   288.91218     -929.38723      4244.4427      4321.3053    
     21670   290.27718     -929.54917      3979.2134      4321.6158    
     21680   246.60975     -928.4557       3270.3995      4324.3984    
     21690   236.96638     -928.2821       2020.4124      4329.2178    
     21700   247.81649     -928.65302      536.57014      4335.3254    
     21710   241.82899     -928.527       -846.0008       4341.8174    
     21720   245.63052     -928.64374     -2032.1231      4347.8277    
     21730   270.85337     -929.33004     -2912.0745      4352.6077    
     21740   306.24145     -930.28419     -3456.4331      4355.5891    
     21750   308.43435     -930.31698     -3550.6021      4356.4218    
     21760   287.26884     -929.70718     -3275.5296      4355.0304    
     21770   288.45327     -929.71736     -2782.2724      4351.5709    
     21780   270.40197     -929.18265     -1780.3953      4346.3702    
     21790   236.05968     -928.17568     -261.72656      4340.0615    
     21800   254.43988     -928.59816      1251.5357      4333.5701    
     21810   284.32554     -929.29133      2581.7296      4327.8382    
     21820   270.38888     -928.74049      3735.0855      4323.7013    
     21830   275.21585     -928.70802      4285.8718      4321.8568    
     21840   292.13588     -929.00678      4022.1873      4322.6444    
     21850   268.20893     -928.19084      3175.251       4325.9289    
     21860   269.87016     -928.1107       1838.0179      4331.201     
     21870   286.1421      -928.44296      418.25373      4337.6629    
     21880   282.34529     -928.22933     -838.773        4344.4461    
     21890   306.69925     -928.8103      -2178.336       4350.742     
     21900   326.28271     -929.27128     -3333.9583      4355.711     
     21910   299.26261     -928.46201     -3833.6332      4358.6357    
     21920   299.44181     -928.42704     -3938.5131      4359.1643    
     21930   306.11749     -928.58171     -3664.4976      4357.2168    
     21940   287.6635      -928.04561     -2768.57        4352.9741    
     21950   295.90914     -928.24997     -1465.0794      4346.9865    
     21960   312.82159     -928.68879      38.223121      4340.0661    
     21970   292.87121     -928.10014      1647.7363      4333.1581    
     21980   288.1795      -927.93148      2984.1602      4327.2492    
     21990   288.71693     -927.90148      4008.6562      4323.1765    
     22000   291.24805     -927.92462      4567.1855      4321.5748    
     22010   319.19044     -928.65788      4339.57        4322.7828    
     22020   305.72624     -928.25027      3492.0259      4326.6883    
     22030   292.74168     -927.8627       2119.3395      4332.7879    
     22040   324.21066     -928.70462      309.67064      4340.2449    
     22050   315.45478     -928.42685     -1573.9233      4347.9526    
     22060   274.14198     -927.24439     -3216.3306      4354.7361    
     22070   293.97687     -927.75323     -4407.3119      4359.5499    
     22080   321.76167     -928.48031     -4778.9375      4361.6386    
     22090   297.22332     -927.76625     -4284.825       4360.7509    
     22100   306.07651     -927.98961     -3409.8916      4357.1563    
     22110   334.87409     -928.76973     -2161.6622      4351.4064    
     22120   330.12315     -928.6292      -483.08487      4344.2949    
     22130   305.65144     -927.94924      1271.0236      4336.8624    
     22140   303.51315     -927.88979      2668.6104      4330.1874    
     22150   304.37651     -927.91447      3697.1537      4325.1469    
     22160   294.83273     -927.65505      4339.2265      4322.3846    
     22170   298.24495     -927.76087      4391.2055      4322.2975    
     22180   322.65972     -928.46131      3712.1354      4324.9229    
     22190   307.32711     -928.07109      2562.7251      4329.8742    
     22200   279.78408     -927.34253      1048.683       4336.4564    
     22210   299.74841     -927.92393     -690.71334      4343.7399    
     22220   318.30764     -928.46413     -2249.5427      4350.6546    
     22230   291.64568     -927.75218     -3329.8533      4356.2239    
     22240   298.85081     -927.98465     -4049.8096      4359.7379    
     22250   337.04101     -929.09598     -4335.2581      4360.7252    
     22260   322.39852     -928.77293     -3967.3291      4359.0011    
     22270   285.16625     -927.83717     -3054.5737      4354.7819    
     22280   302.52779     -928.42247     -1873.4301      4348.6229    
     22290   303.41678     -928.55767     -285.62298      4341.2807    
     22300   269.3214      -927.70883      1588.0428      4333.7499    
     22310   270.82972     -927.82678      3228.1416      4327.1784    
     22320   317.95853     -929.21111      4247.9056      4322.5721    
     22330   323.37767     -929.46121      4681.1176      4320.575     
     22340   270.71353     -928.10154      4529.4646      4321.4703    
     22350   278.44972     -928.40976      3458.3134      4325.1594    
     22360   292.54161     -928.88828      1885.4173      4331.0222    
     22370   259.40962     -928.03558      301.99179      4338.1209    
     22380   259.06974     -928.06426     -1261.2707      4345.4704    
     22390   297.8157      -929.15918     -2712.7247      4352.0872    
     22400   296.82873     -929.1434      -3723.9794      4357.0613    
     22410   291.58339     -929.01063     -4308.6994      4359.7299    
     22420   298.85264     -929.23017     -4391.4148      4359.7053    
     22430   286.62598     -928.9113      -3798.2254      4356.93      
     22440   287.1408      -928.94482     -2712.5539      4351.758     
     22450   280.98077     -928.78394     -1223.5176      4344.8685    
     22460   251.76088     -927.96261      531.22821      4337.1954    
     22470   261.55643     -928.19789      2146.6456      4329.8183    
     22480   286.88274     -928.83513      3600.8938      4323.7505    
     22490   276.81372     -928.47006      4827.0717      4319.9019    
     22500   303.0912      -929.10557      5173.6456      4319.0046    
     22510   326.4104      -929.6485       4658.517       4321.2946    
     22520   290.29724     -928.54692      3599.204       4326.4972    
     22530   294.74014     -928.57017      1793.3448      4333.9637    
     22540   309.34664     -928.84675     -436.4239       4342.6033    
     22550   272.03844     -927.66608     -2463.7046      4351.0573    
     22560   275.36365     -927.60534     -4196.2577      4358.0345    
     22570   307.82587     -928.33381     -5255.7268      4362.4343    
     22580   288.36733     -927.63279     -5246.019       4363.5803    
     22590   293.35708     -927.64514     -4593.5986      4361.4283    
     22600   328.44239     -928.51258     -3458.4911      4356.3694    
     22610   299.60194     -927.63258     -1609.6134      4349.137     
     22620   308.28422     -927.81592      314.90633      4340.8601    
     22630   350.26513     -928.93344      2101.8275      4332.7431    
     22640   316.30957     -927.96226      3890.5959      4325.9198    
     22650   297.62869     -927.42853      5015.3669      4321.4715    
     22660   351.76305     -928.93543      5053.3339      4320.0797    
     22670   322.96966     -928.16711      4657.6154      4321.8261    
     22680   279.64914     -927.00605      3665.0363      4326.4755    
     22690   316.76133     -928.07497      1832.0843      4333.4196    
     22700   328.57554     -928.44102     -249.48719      4341.567     
     22710   280.15513     -927.12768     -2087.4873      4349.6458    
     22720   286.64629     -927.32564     -3701.2347      4356.4801    
     22730   313.37884     -928.08186     -4661.3128      4361.0543    
     22740   301.68638     -927.78103     -4849.9607      4362.7396    
     22750   287.04001     -927.40595     -4531.8451      4361.377     
     22760   308.16707     -928.02852     -3707.6011      4357.1525    
     22770   331.66775     -928.72602     -2150.1514      4350.596     
     22780   321.72636     -928.50458     -101.54553      4342.6791    
     22790   308.59001     -928.19588      1838.3854      4334.6598    
     22800   325.3768      -928.7214       3378.604       4327.7438    
     22810   331.41242     -928.96888      4408.1106      4322.8896    
     22820   289.65617     -927.90103      4887.2453      4320.745     
     22830   283.00866     -927.80717      4550.4976      4321.6056    
     22840   299.66495     -928.36283      3435.5919      4325.2838    
     22850   285.82156     -928.06745      1956.7822      4331.1331    
     22860   273.28609     -927.78972      355.74148      4338.2617    
     22870   295.81454     -928.46954     -1270.939       4345.678     
     22880   297.37844     -928.55763     -2656.1047      4352.3712    
     22890   281.50265     -928.1533      -3739.5404      4357.4541    
     22900   290.96691     -928.4477      -4483.4175      4360.2199    
     22910   306.76542     -928.92319     -4601.1994      4360.1896    
     22920   289.57286     -928.48939     -3839.2936      4357.2845    
     22930   282.269       -928.32679     -2508.12        4351.957     
     22940   305.97824     -929.01843     -1024.4036      4345.0205    
     22950   305.8091      -929.04324      596.46538      4337.4113    
     22960   265.39249     -927.93995      2360.4799      4330.151     
     22970   262.00096     -927.84501      3810.5258      4324.321     
     22980   308.95462     -929.13832      4505.4565      4320.8046    
     22990   299.08416     -928.85631      4739.0929      4320.0666    
     23000   288.78488     -928.57117      4396.5581      4322.263     
     23010   318.93139     -929.41261      3299.9375      4327.197     
     23020   322.28887     -929.51578      1626.7451      4334.2232    
     23030   278.20888     -928.30187     -358.75403      4342.3304    
     23040   254.64007     -927.6395      -2442.0813      4350.2858    
     23050   266.74819     -927.9406      -4141.7373      4356.7892    
     23060   268.54633     -927.93004     -4991.0212      4360.7651    
     23070   269.11552     -927.86489     -4976.0106      4361.6445    
     23080   297.00536     -928.53158     -4306.4808      4359.3989    
     23090   321.20068     -929.06448     -3058.428       4354.4331    
     23100   310.58951     -928.618       -1321.6762      4347.5258    
     23110   305.64398     -928.32633      562.17278      4339.7526    
     23120   311.40198     -928.32559      2283.4498      4332.2839    
     23130   313.98413     -928.24091      3633.9884      4326.1902    
     23140   325.06427     -928.40962      4517.6558      4322.3156    
     23150   322.79942     -928.23501      4887.7939      4321.2216    
     23160   312.58078     -927.87245      4474.0872      4323.1433    
     23170   316.78643     -927.93337      3263.9473      4327.8502    
     23180   311.1499      -927.73319      1633.3981      4334.6386    
     23190   298.35169     -927.33792     -273.16088      4342.5159    
     23200   303.56332     -927.43803     -2235.8257      4350.3018    
     23210   309.96342     -927.56798     -3711.1398      4356.7781    
     23220   309.94038     -927.52717     -4545.4148      4360.9942    
     23230   307.15981     -927.42311     -4793.5702      4362.3873    
     23240   307.79171     -927.42732     -4386.2557      4360.776     
     23250   322.80772     -927.84316     -3365.0609      4356.3958    
     23260   327.79815     -927.99311     -1794.9104      4349.8785    
     23270   309.00979     -927.48914      147.26702      4342.2038    
     23280   317.4853      -927.74127      1980.0109      4334.5684    
     23290   348.48407     -928.63025      3431.8084      4328.1096    
     23300   339.89685     -928.44727      4552.3633      4323.7484    
     23310   335.30926     -928.40868      4917.5546      4322.1714    
     23320   336.96554     -928.57934      4283.5001      4323.614     
     23330   296.17867     -927.5886       3045.9456      4327.733     
     23340   263.62953     -926.80231      1521.3961      4333.8029    
     23350   303.39134     -928.00793     -322.99813      4340.8836    
     23360   300.68012     -928.02497     -1930.6234      4347.8577    
     23370   266.62437     -927.14907     -3054.4921      4353.7152    
     23380   290.54701     -927.86479     -3865.4887      4357.7125    
     23390   327.77931     -928.95384     -4191.3214      4359.3192    
     23400   299.06469     -928.21983     -3799.9331      4358.3171    
     23410   284.19549     -927.86368     -3023.1842      4354.9104    
     23420   324.33263     -929.03175     -1964.656       4349.5701    
     23430   328.15173     -929.19555     -443.0247       4342.9695    
     23440   293.5489      -928.28704      1213.8269      4336.0454    
     23450   288.03591     -928.16963      2522.2942      4329.8127    
     23460   305.40836     -928.67866      3448.9281      4325.0948    
     23470   288.68489     -928.23753      4119.2107      4322.4903    
     23480   267.65076     -927.67046      4295.1244      4322.4215    
     23490   290.45207     -928.31421      3746.1767      4325.0127    
     23500   317.71289     -929.08033      2568.2682      4329.9606    
     23510   309.97521     -928.87823      1012.1678      4336.573     
     23520   293.09903     -928.41932     -718.91705      4343.906     
     23530   295.43032     -928.48397     -2484.3503      4350.8801    
     23540   289.58628     -928.3139      -3911.7538      4356.3855    
     23550   259.55288     -927.46579     -4570.0894      4359.5129    
     23560   267.63827     -927.66893     -4475.2465      4359.807     
     23570   312.85891     -928.89756     -3782.2149      4357.2852    
     23580   311.25        -928.82881     -2475.2261      4352.3668    
     23590   299.02561     -928.47114     -932.63638      4345.8415    
     23600   317.59119     -928.96765      528.19101      4338.658     
     23610   302.41794     -928.52696      2025.9334      4331.7435    
     23620   270.19124     -927.60861      3365.8218      4326.031     
     23630   293.87406     -928.23664      4125.8105      4322.3431    
     23640   303.92152     -928.48381      4450.7229      4321.1851    
     23650   290.11544     -928.07632      4296.5269      4322.786     
     23660   304.97066     -928.4689       3423.8686      4327.0743    
     23670   333.69483     -929.24984      1865.8474      4333.546     
     23680   309.16653     -928.55796      84.585491      4341.2857    
     23690   287.1787      -927.9352      -1761.7453      4349.194     
     23700   299.76956     -928.26254     -3510.2644      4356.1063    
     23710   293.92661     -928.07256     -4773.9883      4360.9099    
     23720   279.44071     -927.64488     -5295.174       4362.7736    
     23730   275.57868     -927.51143     -4915.1428      4361.3306    
     23740   288.23323     -927.82768     -3764.9595      4356.7767    
     23750   310.306       -928.38929     -2139.2318      4349.7977    
     23760   314.76376     -928.444       -64.217465      4341.409     
     23770   313.7626      -928.33036      2230.8183      4332.9023    
     23780   321.28661     -928.43718      4119.1268      4325.6882    
     23790   337.12178     -928.76766      5120.4849      4320.9343    
     23800   324.74119     -928.32219      5337.1526      4319.2992    
     23810   308.83782     -927.79186      4781.7626      4320.9545    
     23820   304.06392     -927.56908      3551.1651      4325.6079    
     23830   307.1267      -927.54907      1851.0352      4332.5483    
     23840   306.30538     -927.40057     -4.9267386      4340.7655    
     23850   305.31615     -927.22896     -1776.8167      4349.1197    
     23860   309.45449     -927.18701     -3203.1745      4356.4991    
     23870   342.65724     -927.94882     -4278.829       4361.9718    
     23880   349.13938     -927.98694     -4933.8614      4364.8176    
     23890   322.66883     -927.15424     -4982.5112      4364.5845    
     23900   330.14478     -927.29898     -4358.5427      4361.2003    
     23910   338.89424     -927.50138     -2959.0031      4355.0344    
     23920   324.04769     -927.06703     -966.18701      4346.9426    
     23930   327.03068     -927.13555      1133.0631      4338.1475    
     23940   346.42786     -927.66895      2925.5619      4329.9482    
     23950   337.6295      -927.44063      4360.0153      4323.4768    
     23960   316.77428     -926.90105      5286.8158      4319.6392    
     23970   313.19959     -926.86006      5462.1271      4319.032     
     23980   334.85898     -927.545        4783.6991      4321.8028    
     23990   333.40775     -927.61637      3531.3501      4327.6026    
     24000   324.17744     -927.48565      1730.4049      4335.7023    
     24010   348.80373     -928.30679     -557.1094       4345.0117    
     24020   344.46208     -928.33973     -2724.2143      4354.1387    
     24030   294.72144     -927.09581     -4458.1005      4361.7098    
     24040   312.03613     -927.69226     -5857.9369      4366.5696    
     24050   334.05766     -928.4304      -6317.5688      4367.8049    
     24060   279.82239     -927.04065     -5392.1614      4365.0917    
     24070   290.53799     -927.42874     -3833.8082      4358.9251    
     24080   339.33214     -928.86652     -1994.8452      4350.2485    
     24090   305.42337     -927.99629      221.07344      4340.2221    
     24100   283.90092     -927.44179      2418.1393      4330.2156    
     24110   311.09232     -928.22097      4350.1295      4321.5998    
     24120   306.16776     -928.1047       5863.0385      4315.5901    
     24130   288.69189     -927.64522      6486.3861      4313.1284    
     24140   295.99673     -927.88275      6156.746       4314.6447    
     24150   309.07837     -928.28958      5081.7846      4320.0096    
     24160   336.12554     -929.09617      3169.7182      4328.6154    
     24170   325.23565     -928.85817      678.19577      4339.3406    
     24180   289.37888     -927.91206     -1941.2828      4350.6785    
     24190   327.43227     -929.00686     -4547.5811      4360.97      
     24200   318.62437     -928.80858     -6384.5069      4368.5646    
     24210   258.12184     -927.17703     -7179.8538      4372.241     
     24220   276.3042      -927.73315     -7259.3831      4371.3961    
     24230   295.86549     -928.33802     -6197.198       4365.9493    
     24240   264.5229      -927.52509     -3940.1982      4356.5406    
     24250   282.37645     -928.05493     -1107.7803      4344.5495    
     24260   316.75507     -929.01571      1994.3226      4331.7498    
     24270   298.89963     -928.50595      5055.2056      4320.0824    
     24280   303.36022     -928.61204      7157.97        4311.4156    
     24290   310.31144     -928.80361      8022.3204      4307.062     
     24300   286.07507     -928.15363      7820.3857      4307.6079    
     24310   286.64951     -928.21055      6497.6498      4312.9855    
     24320   295.60836     -928.50216      4227.4167      4322.4612    
     24330   299.12138     -928.62956      1287.0446      4334.704     
     24340   306.18385     -928.83354     -1797.3495      4347.94      
     24350   302.14069     -928.71067     -4458.2271      4360.2526    
     24360   293.07312     -928.44053     -6507.8209      4369.9229    
     24370   301.30313     -928.65966     -7962.6576      4375.5762    
     24380   282.58591     -928.1505      -8298.2449      4376.2452    
     24390   273.70943     -927.93332     -7279.1228      4371.6703    
     24400   287.64141     -928.35272     -5185.09        4362.4516    
     24410   278.14476     -928.10361     -2328.0885      4349.897     
     24420   273.4897      -927.95282      923.36023      4335.8027    
     24430   295.75625     -928.5044       4167.1608      4322.2032    
     24440   306.151       -928.69379      6966.2411      4311.1091    
     24450   302.54431     -928.49182      8726.9795      4304.2308    
     24460   310.88932     -928.64086      9076.3697      4302.6511    
     24470   303.23357     -928.36987      8148.0415      4306.6342    
     24480   298.02428     -928.18228      6071.8437      4315.6774    
     24490   316.60751     -928.64355      2978.6815      4328.5686    
     24500   312.16195     -928.43686     -545.37487      4343.462     
     24510   289.92498     -927.70854     -3937.0022      4358.183     
     24520   297.33729     -927.77969     -6819.3664      4370.5713    
     24530   317.6652      -928.2022      -8684.2673      4378.7597    
     24540   301.22018     -927.62993     -9155.8271      4381.5149    
     24550   308.46062     -927.7543      -8422.157       4378.4728    
     24560   337.12453     -928.4971      -6508.6407      4370.0857    
     24570   330.85436     -928.28647     -3615.1184      4357.5714    
     24580   286.6251      -927.01944     -207.90963      4342.7681    
     24590   293.12088     -927.13488      2970.5304      4327.8029    
     24600   313.40774     -927.60375      5872.2149      4314.6747    
     24610   300.08274     -927.13613      8296.9044      4305.1685    
     24620   296.77651     -926.96733      9544.8747      4300.7298    
     24630   330.70606     -927.86555      9339.0602      4302.1117    
     24640   340.75765     -928.14126      7900.4189      4309.229     
     24650   335.86846     -928.03672      5230.6946      4321.2392    
     24660   349.82757     -928.46518      1613.7071      4336.5469    
     24670   341.58637     -928.2705      -2240.1809      4352.9521    
     24680   330.08559     -927.97744     -5821.817       4368.0339    
     24690   326.99032     -927.92747     -8551.3965      4379.5056    
     24700   310.67063     -927.54249     -10048.91       4385.5952    
     24710   297.97328     -927.30258     -10230.867      4385.3129    
     24720   284.94425     -927.08981     -8838.6017      4378.5603    
     24730   268.26981     -926.77997     -5960.6801      4366.2622    
     24740   285.36531     -927.37739     -2290.8619      4350.2731    
     24750   321.64615     -928.47657      1691.3725      4332.9446    
     24760   296.7916      -927.83893      5814.0236      4316.8001    
     24770   320.36339     -928.52691      8925.024       4304.3199    
     24780   357.09312     -929.62125      10457.421      4297.3449    
     24790   292.35152     -927.94511      10624.254      4296.7776    
     24800   268.11445     -927.40107      9108.4242      4302.6704    
     24810   333.68238     -929.36363      6057.4782      4314.0961    
     24820   297.06088     -928.47263      2640.1821      4329.255     
     24830   255.82435     -927.39097     -1069.2658      4346.0252    
     24840   322.33748     -929.24723     -4988.628       4362.064     
     24850   327.69547     -929.38527     -7934.5469      4374.9346    
     24860   272.04572     -927.83214     -9532.0626      4382.759     
     24870   283.88682     -928.17202     -10089.408      4384.4967    
     24880   278.26155     -928.05022     -9197.531       4379.8615    
     24890   266.54475     -927.77145     -6939.9732      4369.4937    
     24900   280.59964     -928.19268     -3634.7198      4354.9101    
     24910   284.46747     -928.2896       403.69778      4338.2767    
     24920   299.75491     -928.65821      4399.8922      4322.1354    
     24930   320.23962     -929.14845      7540.4203      4308.9169    
     24940   297.99867     -928.46413      9559.224       4300.4823    
     24950   286.53052     -928.11186      10166.218      4297.9604    
     24960   302.6992      -928.56112      9215.9797      4301.6275    
     24970   302.84308     -928.58874      6959.5348      4310.855     
     24980   293.55996     -928.35444      3752.5526      4324.237     
     24990   289.87191     -928.2472       51.869198      4339.7866    
     25000   292.7448      -928.282       -3451.0449      4355.2097    
     25010   301.68541     -928.45798     -6304.4825      4368.3097    
     25020   302.68409     -928.41109     -8339.9839      4377.2893    
     25030   292.2973      -928.06915     -9203.6239      4380.9084    
     25040   292.2485      -928.0433      -8636.5757      4378.7052    
     25050   296.36346     -928.1513      -6780.8395      4371.1412    
     25060   302.49434     -928.31379     -4115.9827      4359.4904    
     25070   313.02911     -928.58095     -1081.8956      4345.52      
     25080   301.27029     -928.2038       2114.4719      4331.1932    
     25090   290.72611     -927.83792      5053.6458      4318.4878    
     25100   287.43911     -927.65959      7306.9868      4309.1492    
     25110   288.06855     -927.59278      8544.9099      4304.4504    
     25120   309.98241     -928.13234      8522.0045      4305.0222    
     25130   326.0267      -928.52902      7228.3622      4310.7443    
     25140   316.55245     -928.23352      4908.9136      4320.754     
     25150   322.51643     -928.36539      1871.0099      4333.5747    
     25160   317.94961     -928.18727     -1239.0196      4347.3182    
     25170   296.69749     -927.52805     -4098.9692      4360.0369    
     25180   322.92784     -928.17643     -6536.7803      4369.9437    
     25190   332.16125     -928.36258     -7870.7504      4375.579     
     25200   297.32704     -927.3585      -7848.5923      4376.1946    
     25210   300.7174      -927.44111     -6939.2539      4371.8914    
     25220   319.23903     -927.95177     -5195.0735      4363.3765    
     25230   296.64085     -927.31602     -2546.6894      4351.8841    
     25240   291.38305     -927.1393       517.5892       4339.1445    
     25250   323.46208     -927.96552      3461.1889      4327.0803    
     25260   340.21302     -928.35174      5830.6323      4317.4643    
     25270   321.80758     -927.77899      7211.7425      4311.6487    
     25280   316.47741     -927.59901      7380.4994      4310.3484    
     25290   328.34694     -927.92364      6532.36        4313.5564    
     25300   329.90742     -927.98728      4813.3788      4320.6536    
     25310   301.85539     -927.24016      2541.8986      4330.5225    
     25320   297.6957      -927.14786     -0.85420399     4341.7194    
     25330   329.32081     -928.03825     -2447.3865      4352.6567    
     25340   334.50757     -928.2025      -4409.7586      4361.8296    
     25350   324.68431     -927.97416     -5827.257       4368.042     
     25360   333.19062     -928.29194     -6619.2615      4370.4688    
     25370   316.73075     -927.95816     -6390.0955      4368.7288    
     25380   283.12813     -927.16405     -5103.2407      4363.0851    
     25390   288.12735     -927.43646     -3192.5449      4354.4391    
     25400   303.74751     -927.99586     -879.30044      4344.0729    
     25410   288.06169     -927.66561      1732.1383      4333.4818    
     25420   294.91447     -927.93608      4048.5423      4324.255     
     25430   338.92521     -929.24453      5537.4363      4317.7426    
     25440   325.87029     -928.99546      6244.9138      4314.7752    
     25450   278.93035     -927.80801      6138.4356      4315.6831    
     25460   296.75702     -928.41458      4904.3854      4320.2834    
     25470   314.23881     -929.01243      2901.6718      4327.7583    
     25480   278.4885      -928.1141       675.10303      4336.8472    
     25490   262.94283     -927.74051     -1536.2281      4346.1515    
     25500   288.77376     -928.4895      -3445.336       4354.3042    
     25510   289.79339     -928.53664     -4691.013       4360.1542    
     25520   286.44154     -928.46089     -5218.4754      4362.9681    
     25530   295.60221     -928.73611     -4967.0058      4362.4865    
     25540   302.40056     -928.9514      -4036.0028      4358.9415    
     25550   297.48375     -928.84338     -2676.1082      4352.9815    
     25560   291.66166     -928.70474     -1039.2958      4345.5142    
     25570   289.72981     -928.6612       686.32831      4337.5909    
     25580   305.08249     -929.08745      2182.1093      4330.2752    
     25590   296.86545     -928.85659      3408.4039      4324.4723    
     25600   255.35782     -927.69626      4312.2487      4320.8945    
     25610   257.42313     -927.7354       4547.9697      4320.0228    
     25620   295.81325     -928.77014      4103.4257      4321.9433    
     25630   291.74277     -928.6175       3239.5047      4326.3469    
     25640   273.81251     -928.07473      1873.7605      4332.6549    
     25650   294.78979     -928.59395      135.19653      4340.0006    
     25660   308.46344     -928.88796     -1502.9529      4347.3159    
     25670   300.62659     -928.57608     -2875.7772      4353.5868    
     25680   304.83652     -928.59661     -3930.2757      4357.9687    
     25690   309.1075      -928.6187      -4330           4359.8469    
     25700   308.90948     -928.5233      -4028.9744      4359.014     
     25710   318.63703     -928.71052     -3344.8249      4355.6866    
     25720   293.88752     -927.94552     -2200.7542      4350.3477    
     25730   275.5196      -927.35618     -705.11446      4343.7478    
     25740   314.1744      -928.33122      834.29612      4336.8259    
     25750   313.70836     -928.20388      2469.4883      4330.5531    
     25760   287.80556     -927.37776      3629.6966      4325.8959    
     25770   316.15441     -928.06192      3962.4641      4323.5205    
     25780   309.64214     -927.78201      3949.9182      4323.6252    
     25790   289.40971     -927.13888      3503.157       4326.1617    
     25800   319.39409     -927.89475      2393.295       4330.8116    
     25810   333.97622     -928.22613      1074.0844      4336.8927    
     25820   307.68287     -927.43822     -148.91718      4343.5894    
     25830   324.70165     -927.86371     -1499.5618      4350.1188    
     25840   355.61228     -928.68694     -2856.6797      4355.6403    
     25850   334.5555      -928.0959      -3780.0804      4359.3343    
     25860   312.52703     -927.50253     -4229.5044      4360.6347    
     25870   310.98146     -927.49072     -4125.5428      4359.286     
     25880   316.60807     -927.68732     -3355.4125      4355.3929    
     25890   310.7868      -927.57161     -2032.2658      4349.467     
     25900   291.38112     -927.0696      -298.57549      4342.3634    
     25910   314.12072     -927.7262       1460.783       4335.1615    
     25920   328.23534     -928.1404       3067.4696      4328.952     
     25930   316.29067     -927.83553      4203.6228      4324.7009    
     25940   329.24243     -928.23081      4502.418       4323.0667    
     25950   346.49906     -928.76579      4007.6414      4324.2081    
     25960   297.69198     -927.47489      3118.7815      4327.8201    
     25970   267.44233     -926.6819       1772.6492      4333.3283    
     25980   299.36783     -927.59489      64.74699       4339.8907    
     25990   320.47042     -928.19783     -1480.7868      4346.4637    
     26000   296.67556     -927.55257     -2508.4016      4352.0971    
     26010   302.59238     -927.72986     -3244.391       4356.1318    
     26020   350.79045     -929.09258     -3689.2424      4358.11      
     26030   344.51298     -928.97191     -3507.8991      4357.7857    
     26040   317.45307     -928.29642     -2913.0788      4355.2776    
     26050   319.33787     -928.43546     -2125.9728      4350.9667    
     26060   300.64179     -928.00507     -1013.7489      4345.3764    
     26070   269.08591     -927.19974      268.49008      4339.2106    
     26080   288.12014     -927.78061      1439.8579      4333.2601    
     26090   297.97527     -928.09771      2590.4631      4328.2609    
     26100   282.25329     -927.69637      3518.1911      4324.9068    
     26110   304.35372     -928.34464      3933.6213      4323.7431    
     26120   317.49983     -928.75317      3777.4707      4325.0116    
     26130   301.45703     -928.36151      2923.0653      4328.5956    
     26140   290.89208     -928.12167      1542.7547      4333.9647    
     26150   284.65815     -927.99194      104.29948      4340.2808    
     26160   294.80184     -928.3042      -1346.0837      4346.6411    
     26170   321.91062     -929.08733     -2703.9282      4352.1365    
     26180   287.86126     -928.17621     -3445.6373      4355.9433    
     26190   276.21022     -927.8825      -3705.3843      4357.587     
     26200   340.19256     -929.69756     -3693.5359      4356.8968    
     26210   324.99004     -929.33768     -2944.8447      4353.9249    
     26220   268.71892     -927.84107     -1765.7362      4349.1421    
     26230   295.30299     -928.63798     -721.06001      4343.2705    
     26240   294.53445     -928.67178      589.21033      4337.0032    
     26250   253.19        -927.56167      2098.5184      4331.1617    
     26260   283.64194     -928.43215      3021.0568      4326.6349    
     26270   283.96921     -928.45885      3494.3993      4323.9984    
     26280   258.5474      -927.76347      3616.0097      4323.5387    
     26290   283.87327     -928.46915      3298.5422      4325.3142    
     26300   293.24446     -928.72145      2727.4962      4329.1341    
     26310   295.64772     -928.77326      1678.6147      4334.6277    
     26320   328.51447     -929.66397      47.736289      4341.1312    
     26330   320.67648     -929.42435     -1537.2586      4347.6577    
     26340   276.8169      -928.18581     -2721.4298      4353.2285    
     26350   299.76213     -928.79746     -3808.5644      4357.0711    
     26360   300.13261     -928.77591     -4373.0679      4358.5263    
     26370   251.33387     -927.38733     -4082.1497      4357.2618    
     26380   269.54298     -927.84463     -3212.591       4353.4552    
     26390   317.98774     -929.10563     -1806.0147      4347.6732    
     26400   310.30956     -928.78509     -2.7749468      4340.8115    
     26410   279.73863     -927.82426      1660.345       4333.9813    
     26420   287.81396     -927.92275      2905.8469      4328.2065    
     26430   309.72764     -928.38733      3883.9407      4324.266     
     26440   316.53896     -928.43371      4353.5541      4322.7405    
     26450   298.92817     -927.82175      4118.455       4323.9016    
     26460   308.78215     -927.99005      3165.96        4327.5941    
     26470   315.84034     -928.08739      1824.3817      4333.2424    
     26480   305.02674     -927.69939      269.50115      4340.0179    
     26490   312.02634     -927.81193     -1321.2356      4346.9545    
     26500   326.98981     -928.15086     -2682.6692      4353.0638    
     26510   317.16305     -927.81615     -3596.2314      4357.4957    
     26520   313.78567     -927.67957     -4022.7238      4359.6717    
     26530   328.77215     -928.07028     -3976.4474      4359.3247    
     26540   328.72548     -928.06496     -3401.0687      4356.4954    
     26550   305.76287     -927.44056     -2312.6098      4351.5607    
     26560   294.85516     -927.1516      -874.77496      4345.2148    
     26570   324.08175     -927.97425      610.74913      4338.3543    
     26580   328.77753     -928.12203      2186.4995      4331.9208    
     26590   293.58163     -927.16816      3625.7536      4326.8834    
     26600   313.57984     -927.75165      4282.5999      4324.0917    
     26610   356.21905     -928.98928      4097.097       4323.939     
     26620   317.94044     -928.01217      3537.3354      4326.3311    
     26630   287.5633      -927.2612       2436.2492      4330.904     
     26640   307.61261     -927.91017      805.96316      4336.9694    
     26650   287.65295     -927.44336     -719.22133      4343.5454    
     26660   272.85356     -927.10056     -2017.8029      4349.6777    
     26670   324.08417     -928.59038     -3153.3077      4354.538     
     26680   331.52198     -928.88273     -3661.7927      4357.4365    
     26690   312.23643     -928.4504      -3642.5285      4358.0452    
     26700   315.5159      -928.65709     -3336.6178      4356.3662    
     26710   311.57299     -928.67045     -2637.8092      4352.6106    
     26720   306.0697      -928.63981     -1551.1132      4347.2302    
     26730   283.57031     -928.12167     -148.78048      4340.9171    
     26740   262.79451     -927.61823      1276.3931      4334.5429    
     26750   285.95149     -928.30876      2443.2769      4328.9839    
     26760   300.26474     -928.74238      3379.4107      4324.9657    
     26770   274.6791      -928.05776      3961.6761      4323.0568    
     26780   290.42741     -928.51498      3805.8428      4323.5859    
     26790   299.03473     -928.77131      3160.0731      4326.468     
     26800   274.60732     -928.10483      2224.0919      4331.3112    
     26810   298.39016     -928.76791      832.67906      4337.5218    
     26820   323.76312     -929.46982     -779.87546      4344.2425    
     26830   288.66897     -928.49112     -2172.4647      4350.4856    
     26840   292.64984     -928.5947      -3381.8671      4355.363     
     26850   304.63366     -928.91927     -4153.7027      4358.1225    
     26860   275.25172     -928.09847     -4266.5764      4358.2874    
     26870   265.22041     -927.81311     -3737.5369      4355.7897    
     26880   280.16856     -928.21115     -2568.6545      4350.976     
     26890   290.32306     -928.46267     -984.24415      4344.5875    
     26900   309.02963     -928.94345      601.36645      4337.608     
     26910   301.62093     -928.69598      2188.0943      4331.0397    
     26920   281.6759      -928.09937      3561.0395      4325.8596    
     26930   311.37683     -928.88173      4225.4063      4322.885     
     26940   321.26603     -929.12265      4236.1038      4322.5233    
     26950   283.54746     -928.05643      3757.2121      4324.7847    
     26960   288.00203     -928.16469      2586.0577      4329.3551    
     26970   300.12802     -928.4766       1026.0645      4335.5241    
     26980   285.25821     -928.03022     -528.53671      4342.3391    
     26990   280.90801     -927.86598     -1968.2226      4348.827     
     27000   278.93315     -927.75389     -3088.8255      4354.0893    
     27010   303.77355     -928.37763     -3794.2438      4357.4187    
     27020   330.97035     -929.06841     -3986.0575      4358.3727    
     27030   299.8188      -928.15506     -3539.5697      4356.842     
     27040   289.40028     -927.82785     -2706.864       4353.1021    
     27050   329.29195     -928.89523     -1610.2743      4347.6822    
     27060   302.47744     -928.11025     -36.500173      4341.301     
     27070   281.35385     -927.48268      1530.24        4334.9249    
     27080   324.9983      -928.64384      2722.0273      4329.5136    
     27090   325.98624     -928.62153      3678.2222      4325.8166    
     27100   297.10023     -927.78555      4106.114       4324.4035    
     27110   302.62328     -927.9127       3721.3962      4325.5167    
     27120   323.38882     -928.46423      2724.9869      4328.9254    
     27130   319.17186     -928.32758      1417.5298      4334.025     
     27140   285.29434     -927.36875     -7.5120274      4340.0095    
     27150   269.56952     -926.90017     -1397.1337      4345.9934    
     27160   299.63902     -927.67792     -2555.7748      4351.1087    
     27170   310.93746     -927.90972     -3148.0701      4354.6413    
     27180   304.12441     -927.6261      -3213.9319      4356.2131    
     27190   339.91326     -928.51243     -3057.9809      4355.764     
     27200   354.99999     -928.81647     -2493.2293      4353.4105    
     27210   320.99143     -927.77489     -1486.1913      4349.5194    
     27220   322.81561     -927.73957     -474.04872      4344.7068    
     27230   343.46001     -928.22686      495.00526      4339.6126    
     27240   316.16895     -927.39345      1614.3761      4334.8602    
     27250   308.54643     -927.11815      2478.8093      4331.1242    
     27260   332.0646      -927.71147      2828.2295      4328.9248    
     27270   320.22586     -927.33579      2906.9455      4328.491     
     27280   301.53801     -926.78446      2719.433       4329.868     
     27290   322.43008     -927.33846      2091.7189      4332.9267    
     27300   344.10559     -927.92332      1152.2838      4337.2855    
     27310   326.18731     -927.42811      23.939762      4342.363     
     27320   304.55648     -926.84145     -1160.8649      4347.4586    
     27330   325.7952      -927.45144     -2257.6787      4351.8316    
     27340   347.01758     -928.08229     -3016.1107      4354.7992    
     27350   321.43        -927.44142     -3185.6825      4355.8961    
     27360   315.27251     -927.3612      -2965.0713      4355.0015    
     27370   333.36774     -927.97624     -2395.6214      4352.2566    
     27380   337.231       -928.22599     -1351.2414      4348.0358    
     27390   312.77981     -927.70055     -29.838081      4342.9943    
     27400   316.18939     -927.94748      996.50073      4337.9328    
     27410   317.96205     -928.15002      1732.6793      4333.4973    
     27420   300.33859     -927.8007       2415.9415      4330.16      
     27430   301.10102     -927.94464      2886.4368      4328.3334    
     27440   299.69999     -928.01394      2936.6603      4328.297     
     27450   300.93403     -928.14304      2470.6792      4330.0753    
     27460   303.85428     -928.30872      1647.3206      4333.3875    
     27470   298.33674     -928.22776      657.81575      4337.7318    
     27480   298.34984     -928.28844     -443.9221       4342.4908    
     27490   292.38331     -928.17053     -1465.568       4346.9835    
     27500   291.38457     -928.18012     -2288.2028      4350.5698    
     27510   295.56667     -928.32664     -2791.3012      4352.7344    
     27520   304.3417      -928.6004      -2932.4996      4353.1583    
     27530   296.53688     -928.41564     -2616.3796      4351.7586    
     27540   289.20245     -928.24144     -1958.481       4348.7301    
     27550   297.95388     -928.50987     -1045.0642      4344.4873    
     27560   290.37371     -928.31744      168.88024      4339.6132    
     27570   301.44526     -928.63622      1455.4156      4334.8605    
     27580   321.83722     -929.21461      2485.2075      4331.0173    
     27590   316.25314     -929.08261      3019.7225      4328.7128    
     27600   299.07559     -928.63989      2979.7547      4328.2737    
     27610   284.15532     -928.26185      2446.3432      4329.6786    
     27620   272.54832     -927.96826      1564.0225      4332.6042    
     27630   272.76728     -927.98919      476.59745      4336.5077    
     27640   273.61485     -928.012       -554.185        4340.7239    
     27650   260.40344     -927.626       -1299.162       4344.6187    
     27660   281.86548     -928.18473     -1873.2051      4347.7127    
     27670   310.65304     -928.93106     -2159.0796      4349.6482    
     27680   301.18078     -928.61164     -1986.7177      4350.2534    
     27690   302.69189     -928.59809     -1647.2936      4349.618     
     27700   339.66579     -929.56723     -1370.0243      4347.9428    
     27710   341.30511     -929.56625     -957.14682      4345.4165    
     27720   292.89795     -928.19412     -296.37233      4342.3063    
     27730   262.67283     -927.32486      406.45276      4339.0168    
     27740   298.22638     -928.2639       895.50521      4335.974     
     27750   315.44139     -928.67551      1375.5227      4333.4973    
     27760   274.55687     -927.47007      1929.8404      4331.8925    
     27770   273.05179     -927.34887      2190.2203      4331.4854    
     27780   323.62916     -928.64528      1958.4862      4332.4284    
     27790   319.50523     -928.40672      1514.6074      4334.5984    
     27800   289.80827     -927.46615      857.38968      4337.72      
     27810   315.67184     -928.06315     -79.094559      4341.3784    
     27820   326.20431     -928.22273     -930.93785      4345.008     
     27830   296.1205      -927.26775     -1523.1135      4348.0814    
     27840   302.35062     -927.3304      -2013.4869      4350.2097    
     27850   332.21313     -928.04888     -2172.7221      4351.0941    
     27860   348.10381     -928.39563     -1903.9625      4350.6357    
     27870   337.17618     -928.02931     -1412.4386      4348.9913    
     27880   339.96312     -928.07398     -918.17648      4346.4565    
     27890   333.17926     -927.87657     -318.66599      4343.351     
     27900   308.65098     -927.20401      264.17132      4340.0442    
     27910   285.96697     -926.5844       872.99377      4336.9076    
     27920   303.86512     -927.08794      1410.7831      4334.3131    
     27930   324.0916      -927.65857      1898.3195      4332.6023    
     27940   323.13912     -927.6539       2255.5097      4332.0787    
     27950   330.95163     -927.91012      2196.7866      4332.9533    
     27960   341.81683     -928.27479      1615.5401      4335.1879    
     27970   323.42998     -927.84893      829.04307      4338.4438    
     27980   308.43526     -927.52564     -32.142287      4342.2384    
     27990   316.42338     -927.84596     -1010.7865      4346.0284    
     28000   312.77079     -927.84999     -1901.537       4349.2061    
     28010   292.94554     -927.40217     -2394.0567      4351.2224    
     28020   300.91884     -927.71922     -2536.4679      4351.7553    
     28030   325.99711     -928.51673     -2386.2605      4350.7041    
     28040   305.89943     -928.06238     -1753.4729      4348.1718    
     28050   281.46087     -927.46731     -746.32404      4344.5503    
     28060   316.69817     -928.51428      201.95165      4340.4456    
     28070   330.85096     -928.97341      1178.3967      4336.4644    
     28080   310.50639     -928.47019      2027.1806      4333.2109    
     28090   307.77723     -928.44791      2402.7873      4331.1984    
     28100   303.2218      -928.36739      2334.1712      4330.668     
     28110   289.03188     -928.00968      2004.3694      4331.5934    
     28120   285.70269     -927.94325      1433.8908      4333.7749    
     28130   274.74581     -927.65158      718.8152       4336.8679    
     28140   279.00448     -927.76837     -54.946606      4340.4338    
     28150   311.01064     -928.64664     -839.14353      4343.9903    
     28160   324.98432     -929.02746     -1466.5003      4347.0525    
     28170   306.71184     -928.5239      -1884.8825      4349.2226    
     28180   291.98208     -928.12346     -2133.6222      4350.2262    
     28190   293.69468     -928.17808     -2091.7448      4349.9055    
     28200   297.78997     -928.29681     -1725.8648      4348.2815    
     28210   297.3281      -928.28773     -1145.7462      4345.5741    
     28220   296.30684     -928.26063     -386.78843      4342.1438    
     28230   302.18276     -928.42233      510.35482      4338.4649    
     28240   303.30857     -928.45068      1366.3168      4335.0923    
     28250   302.6888      -928.43127      1916.0447      4332.5501    
     28260   312.42507     -928.70408      2112.5464      4331.1836    
     28270   298.82287     -928.33468      2174.8175      4331.1367    
     28280   282.03968     -927.8773       1908.7259      4332.4447    
     28290   297.47566     -928.31035      1182.6087      4334.9421    
     28300   296.84245     -928.29271      390.59781      4338.2066    
     28310   276.41911     -927.71902     -331.57692      4341.7536    
     28320   300.1069      -928.36144     -1137.7822      4345.1181    
     28330   315.56667     -928.77055     -1732.3225      4347.8072    
     28340   285.12246     -927.90691     -1936.4075      4349.4485    
     28350   295.24515     -928.16841     -1998.3528      4349.8867    
     28360   320.0702      -928.83406     -1820.1663      4349.0803    
     28370   312.69866     -928.6108      -1341.3229      4347.1368    
     28380   306.556       -928.42871     -730.88512      4344.3429    
     28390   305.14492     -928.38029     -96.615568      4341.0732    
     28400   293.90611     -928.05799      542.54863      4337.7249    
     28410   284.53114     -927.7832       1164.1626      4334.6971    
     28420   267.48499     -927.28335      1844.4539      4332.3885    
     28430   286.51377     -927.76849      2319.1659      4331.2162    
     28440   346.41333     -929.37462      2284.3508      4331.4692    
     28450   331.13576     -928.9018       2010.7451      4333.1575    
     28460   281.77223     -927.49861      1450.6653      4336.1213    
     28470   324.37537     -928.64722      342.29856      4340.0039    
     28480   343.5583      -929.14378     -762.48979      4344.1506    
     28490   276.44095     -927.25565     -1521.9462      4347.8855    
     28500   275.58652     -927.20445     -2300.4124      4350.6959    
     28510   327.17323     -928.59593     -2807.1494      4352.0937    
     28520   300.73634     -927.82119     -2574.8551      4351.7712    
     28530   281.04988     -927.2396      -2057.2642      4349.8294    
     28540   303.59789     -927.82128     -1417.9559      4346.5737    
     28550   304.91563     -927.8025      -397.63984      4342.4164    
     28560   310.68343     -927.90328      796.93035      4337.9823    
     28570   323.97478     -928.21008      1897.8655      4334.0092    
     28580   327.76885     -928.25887      2693.9994      4331.1831    
     28590   342.39407     -928.62567      2946.4395      4329.9998    
     28600   329.30381     -928.24521      2737.6231      4330.6417    
     28610   324.21307     -928.10931      2048.5754      4332.9957    
     28620   322.21089     -928.07504      1046.9447      4336.6605    
     28630   301.70244     -927.5365      -25.976487      4341.0359    
     28640   290.04422     -927.24381     -1069.1271      4345.4588    
     28650   297.94847     -927.49227     -2035.0198      4349.269     
     28660   295.30603     -927.44783     -2656.6711      4351.8597    
     28670   300.71587     -927.6306      -2805.5278      4352.8243    
     28680   317.31013     -928.13459     -2577.1496      4352.0413    
     28690   310.50336     -928.00261     -1968.8506      4349.6368    
     28700   310.57899     -928.07368     -1089.0895      4345.9732    
     28710   315.41812     -928.29024     -56.919034      4341.589     
     28720   304.1574      -928.06798      1017.6646      4337.1257    
     28730   311.45534     -928.37085      1883.844       4333.2447    
     28740   307.56427     -928.37424      2541.5481      4330.5003    
     28750   301.46165     -928.32245      2801.1911      4329.3066    
     28760   315.28031     -928.83334      2580.6511      4329.8414    
     28770   309.61268     -928.81329      2076.3161      4332.0024    
     28780   285.80759     -928.27838      1277.9015      4335.4969    
     28790   294.06852     -928.61902      55.949448      4339.8326    
     28800   278.93176     -928.29081     -1164.9254      4344.2766    
     28810   261.17881     -927.86155     -2071.6068      4348.0718    
     28820   276.7429      -928.33689     -2583.6305      4350.6337    
     28830   275.37816     -928.32683     -2673.8283      4351.6179    
     28840   285.87939     -928.635       -2483.5503      4350.9339    
     28850   316.20016     -929.49241     -1953.2437      4348.682     
     28860   287.22058     -928.70277     -924.7725       4345.1912    
     28870   274.92527     -928.36805      55.481039      4341.0649    
     28880   310.43665     -929.35231      758.14296      4336.9031    
     28890   292.65769     -928.85349      1504.2642      4333.1706    
     28900   264.58634     -928.0636       2127.4278      4330.3322    
     28910   285.19355     -928.61587      2406.7913      4328.7775    
     28920   277.91683     -928.38256      2552.4571      4328.7165    
     28930   283.20875     -928.49252      2347.1336      4330.2506    
     28940   313.12917     -929.28002      1723.3923      4333.2743    
     28950   298.82281     -928.83829      905.84128      4337.438     
     28960   302.87413     -928.90899     -248.7755       4342.2351    
     28970   308.55043     -929.02186     -1494.8744      4346.9601    
     28980   272.57112     -927.97641     -2466.1845      4350.84      
     28990   275.36934     -928.00218     -3195.6663      4353.2334    
     29000   293.24079     -928.43466     -3416.6812      4353.6612    
     29010   257.52861     -927.37214     -2841.7378      4351.9686    
     29020   282.25383     -927.97962     -2027.9691      4348.4507    
     29030   316.46953     -928.82571     -892.26841      4343.6081    
     29040   285.52979     -927.85953      691.35139      4338.1529    
     29050   295.77064     -928.03857      2044.1026      4333.0396    
     29060   357.70467     -929.64664      2858.1365      4329.1083    
     29070   320.02862     -928.51175      3557.1476      4326.9197    
     29080   296.62644     -927.80833      3588.4125      4326.9051    
     29090   333.31035     -928.78664      2763.5286      4329.1121    
     29100   309.7735      -928.10802      1760.9257      4333.1047    
     29110   268.569       -926.9463       705.86039      4338.2922    
     29120   307.11766     -927.99264     -647.35944      4344.0143    
     29130   337.11333     -928.79998     -1933.5009      4349.4453    
     29140   308.36395     -927.99113     -2891.4338      4353.7722    
     29150   291.27131     -927.5142      -3513.0941      4356.3575    
     29160   295.11737     -927.62022     -3654.0671      4356.7766    
     29170   291.67897     -927.52469     -3290.0953      4354.9009    
     29180   298.20908     -927.70771     -2480.3696      4350.92      
     29190   296.10578     -927.64847     -1094.5288      4345.3283    
     29200   307.32608     -927.95408      559.202        4338.9668    
     29210   342.39401     -928.92476      2025.6435      4332.8476    
     29220   331.60531     -928.63861      3275.1897      4327.9014    
     29230   292.74248     -927.58247      4121.8804      4324.9223    
     29240   321.87516     -928.42126      4148.8071      4324.448     
     29250   344.41627     -929.09703      3526.463       4326.5517    
     29260   298.38404     -927.88259      2497.5587      4330.9074    
     29270   293.68252     -927.81031      930.36706      4336.9025    
     29280   312.62754     -928.38767     -789.25403      4343.6028    
     29290   287.69969     -927.73792     -2219.7667      4349.9561    
     29300   283.63971     -927.65641     -3482.7592      4355.0293    
     29310   295.03671     -927.99953     -4266.4773      4358.0033    
     29320   276.9111      -927.52004     -4158.1621      4358.359     
     29330   291.77173     -927.95435     -3481.9908      4356.0961    
     29340   320.57219     -928.77758     -2401.5951      4351.597     
     29350   308.81021     -928.47868     -910.32219      4345.5224    
     29360   312.54622     -928.61238      626.06995      4338.7773    
     29370   323.30436     -928.94591      2079.0658      4332.3222    
     29380   296.17859     -928.23266      3310.1749      4327.0717    
     29390   280.51502     -927.83523      3937.5777      4323.7948    
     29400   305.32368     -928.56524      3888.8955      4322.9092    
     29410   295.01892     -928.32697      3552.7198      4324.4491    
     29420   284.19152     -928.07533      2780.8969      4328.2374    
     29430   302.36238     -928.62865      1511.2751      4333.8284    
     29440   293.49562     -928.42724      76.033567      4340.4788    
     29450   291.3663      -928.40684     -1522.8518      4347.2967    
     29460   302.52545     -928.75219     -3011.4652      4353.2812    
     29470   289.12447     -928.41799     -3945.4179      4357.4879    
     29480   274.38455     -928.04717     -4343.8211      4359.2802    
     29490   292.52481     -928.59377     -4288.416       4358.3527    
     29500   292.02836     -928.62888     -3452.0365      4354.7194    
     29510   289.10317     -928.59926     -2002.0905      4348.8671    
     29520   294.68712     -928.80432     -314.35545      4341.6722    
     29530   286.35216     -928.61776      1435.2         4334.1842    
     29540   285.49639     -928.63336      2940.2925      4327.4883    
     29550   291.10589     -928.83036      4026.0188      4322.5304    
     29560   269.14333     -928.2636       4720.3346      4320.0169    
     29570   275.89291     -928.49499      4637.9412      4320.3924    
     29580   307.69701     -929.43139      3692.8096      4323.6452    
     29590   276.55621     -928.62486      2406.6462      4329.2654    
     29600   251.51465     -927.97242      807.64035      4336.4872    
     29610   301.89534     -929.39797     -1096.5996      4344.3269    
     29620   307.6655      -929.57722     -2650.9439      4351.6263    
     29630   275.89548     -928.71213     -3809.5615      4357.3813    
     29640   292.82801     -929.19849     -4783.8819      4360.8049    
     29650   293.74034     -929.2455      -5094.599       4361.2625    
     29660   249.78413     -928.04681     -4463.7012      4358.5289    
     29670   251.3901      -928.10083     -3312.2023      4352.9414    
     29680   266.56642     -928.50528     -1630.8148      4345.2101    
     29690   257.8953      -928.21482      575.1664       4336.3887    
     29700   282.50081     -928.81377      2768.6011      4327.8337    
     29710   318.19463     -929.68937      4569.7063      4320.9073    
     29720   309.07048     -929.31822      5746.9794      4316.7407    
     29730   293.86301     -928.79725      5909.1624      4316.0725    
     29740   299.60424     -928.86972      5057.2473      4319.0472    
     29750   294.92631     -928.65618      3534.7706      4325.2053    
     29760   279.25274     -928.13534      1520.5961      4333.6536    
     29770   288.01699     -928.27854     -801.5074       4343.1693    
     29780   282.27218     -927.99933     -2925.3906      4352.3266    
     29790   284.74384     -927.94204     -4651.8117      4359.7689    
     29800   297.70307     -928.17609     -5615.7075      4364.3817    
     29810   293.70033     -927.95444     -5590.1288      4365.5182    
     29820   311.3932      -928.35593     -4930.54        4363.1314    
     29830   344.08907     -929.19319     -3765.4287      4357.6039    
     29840   303.26191     -928.01242     -1849.881       4349.6778    
     29850   282.85396     -927.40589      266.34701      4340.5268    
     29860   334.89469     -928.80194      2133.5237      4331.4597    
     29870   314.69462     -928.19467      3974.281       4323.6698    
     29880   267.13965     -926.83661      5386.7982      4318.2925    
     29890   310.12875     -927.9983       5751.144       4316.1836    
     29900   318.07605     -928.19691      5447.5316      4317.6232    
     29910   289.81109     -927.40787      4425.8583      4322.4541    
     29920   316.88969     -928.16081      2544.331       4330.0708    
     29930   322.16882     -928.30549      386.57454      4339.3659    
     29940   304.69192     -927.81534     -1757.0094      4349.0146    
     29950   330.37358     -928.52351     -3802.1099      4357.6582    
     29960   310.67453     -927.98021     -5161.9669      4364.01      
     29970   284.54139     -927.26727     -5787.8697      4367.1699    
     29980   327.78964     -928.49706     -5838.5839      4366.6906    
     29990   322.7476      -928.41043     -4901.6684      4362.5401    
     30000   291.30249     -927.60265     -3166.2591      4355.289     
     30010   316.41231     -928.36543     -1164.0024      4346.0037    
     30020   316.79263     -928.44194      1059.0058      4335.954     
     30030   289.68845     -927.74813      3209.7186      4326.5257    
     30040   290.81222     -927.83342      4874.0604      4319.0425    
     30050   283.14524     -927.67474      5974.2719      4314.543     
     30060   292.12079     -927.98871      6200.1222      4313.6999    
     30070   303.18585     -928.37989      5523.9887      4316.6752    
     30080   288.89153     -928.07942      4110.0021      4323.0903    
     30090   295.95084     -928.37175      2069.9923      4332.1044    
     30100   317.14821     -929.05974     -379.85779      4342.4769    
     30110   295.47768     -928.55372     -2682.756       4352.7072    
     30120   305.93611     -928.94006     -4642.2829      4361.3335    
     30130   317.18604     -929.37056     -6018.8414      4367.0965    
     30140   286.12315     -928.64472     -6556.7659      4369.1032    
     30150   273.80411     -928.44319     -6294.7443      4366.9802    
     30160   278.45038     -928.71491     -5093.8867      4360.8902    
     30170   254.3422      -928.1669      -2907.0276      4351.6035    
     30180   250.28838     -928.13243     -297.22598      4340.484     
     30190   275.31016     -928.8663       2244.3268      4329.1597    
     30200   280.0295      -929.0053       4644.0685      4319.2259    
     30210   281.37423     -929.03591      6473.986       4312.1482    
     30220   277.43823     -928.91856      7272.6621      4309.0317    
     30230   291.74299     -929.31825      6848.2865      4310.3622    
     30240   287.98391     -929.22599      5548.1921      4315.9165    
     30250   261.48416     -928.49941      3596.5022      4324.9291    
     30260   274.1935      -928.84088      997.92146      4336.2112    
     30270   308.55029     -929.75514     -1894.7938      4348.1682    
     30280   289.82726     -929.17966     -4427.5473      4359.0083    
     30290   259.63099     -928.28196     -6265.0871      4367.1201    
     30300   279.17658     -928.76833     -7280.8603      4371.3101    
     30310   280.70506     -928.7654      -7190.3568      4370.927     
     30320   271.4538      -928.48123     -6052.2626      4366.0185    
     30330   278.90846     -928.66539     -4060.3213      4357.3107    
     30340   284.5888      -928.78922     -1453.4913      4346.0773    
     30350   284.17151     -928.72531      1385.8042      4333.9649    
     30360   277.23377     -928.46174      4041.4057      4322.7422    
     30370   274.47076     -928.30297      6106.5575      4314.0372    
     30380   298.18557     -928.88286      7219.619       4309.0929    
     30390   298.95311     -928.8442       7364.2981      4308.5832    
     30400   275.16542     -928.14829      6481.8082      4312.5929    
     30410   293.03298     -928.61846      4560.1873      4320.5856    
     30420   299.25853     -928.75576      2134.8707      4331.4202    
     30430   287.33113     -928.37494     -573.67104      4343.608     
     30440   312.04465     -928.99226     -3442.1302      4355.4501    
     30450   309.74041     -928.84945     -5723.1163      4365.1628    
     30460   273.79746     -927.78294     -6993.8986      4371.299     
     30470   286.79237     -928.08873     -7396.5432      4373.0231    
     30480   312.14555     -928.74994     -6825.1421      4370.085     
     30490   284.25613     -927.94728     -5099.7687      4362.8809    
     30500   287.20302     -928.00036     -2665.9234      4352.5106    
     30510   316.88216     -928.7731       115.29222      4340.5283    
     30520   309.04121     -928.48664      2879.3781      4328.6836    
     30530   291.23924     -927.91763      5147.9778      4318.6768    
     30540   298.64664     -928.04929      6647.09        4311.8813    
     30550   290.71717     -927.76417      7349.1627      4309.199     
     30560   297.51633     -927.90652      6892.4423      4311.0185    
     30570   299.13355     -927.91637      5461.4615      4317.0628    
     30580   287.00494     -927.5459       3437.7         4326.4735    
     30590   314.86693     -928.27212      840.38541      4337.9985    
     30600   342.48156     -928.97372     -1913.1652      4350.0387    
     30610   319.01341     -928.25822     -4187.421       4360.8899    
     30620   322.48291     -928.30328     -5977.1593      4369.0938    
     30630   338.44665     -928.71666     -7104.276       4373.5132    
     30640   322.70698     -928.28747     -7306.7246      4373.4461    
     30650   295.24345     -927.56543     -6517.2459      4368.7855    
     30660   273.48295     -927.00917     -4710.5302      4360.0724    
     30670   280.03866     -927.22304     -2090.863       4348.4864    
     30680   295.54805     -927.65626      947.64417      4335.6993    
     30690   289.34255     -927.45685      3945.4343      4323.61      
     30700   302.73459     -927.78417      6433.4953      4314.0493    
     30710   336.34472     -928.67985      7972.4056      4308.4999    
     30720   328.08966     -928.44897      8240.6079      4307.8541    
     30730   316.81763     -928.17838      7044.264       4312.2341    
     30740   322.15886     -928.39963      4793.0086      4320.9126    
     30750   315.46773     -928.30157      2040.1199      4332.5248    
     30760   310.36877     -928.25196     -933.71649      4345.3675    
     30770   295.2112      -927.92066     -3745.8114      4357.5885    
     30780   280.08938     -927.58336     -6029.3857      4367.4199    
     30790   310.85681     -928.53678     -7553.5882      4373.4142    
     30800   306.56922     -928.5567      -7811.1603      4374.6392    
     30810   269.06401     -927.66389     -6855.212       4370.9582    
     30820   301.66555     -928.72354     -5262.4161      4362.9907    
     30830   299.87512     -928.82831     -2846.9569      4351.8213    
     30840   260.3381      -927.84439      130.2535       4339.0103    
     30850   278.36804     -928.41178      3007.342       4326.4174    
     30860   299.62678     -929.04569      5522.6639      4315.8178    
     30870   264.02246     -928.08391      7439.7889      4308.7245    
     30880   291.97622     -928.88866      8033.0755      4306.2242    
     30890   330.18765     -930.00435      7430.557       4308.6421    
     30900   283.49224     -928.78219      6004.13        4315.5986    
     30910   270.82931     -928.4975       3440.6857      4326.1756    
     30920   286.23043     -928.96329      175.73921      4338.7981    
     30930   266.74501     -928.42226     -2875.8478      4351.4694    
     30940   263.22425     -928.29329     -5339.031       4362.2768    
     30950   279.07962     -928.68472     -6944.555       4369.6725    
     30960   288.81342     -928.90729     -7505.3815      4372.6597    
     30970   296.96456     -929.10012     -7087.9839      4370.9094    
     30980   284.84057     -928.74181     -5681.9223      4364.7407    
     30990   267.49047     -928.23329     -3363.3871      4355.1062    
     31000   296.28524     -928.97988     -664.81285      4343.4969    
     31010   298.93549     -928.96643      2093.7688      4331.6293    
     31020   276.18686     -928.23001      4519.4965      4321.2079    
     31030   292.06795     -928.55507      6151.5363      4313.6819    
     31040   304.03769     -928.76915      6973.8142      4310.0096    
     31050   279.58153     -927.99006      6960.2659      4310.6444    
     31060   284.80782     -928.05267      5816.3315      4315.5163    
     31070   302.85741     -928.46807      3768.2881      4323.9027    
     31080   294.58149     -928.14797      1413.0372      4334.5528    
     31090   299.41931     -928.18625     -1037.6955      4345.9979    
     31100   316.6637      -928.56084     -3412.7391      4356.7022    
     31110   308.31043     -928.23125     -5329.9277      4365.1876    
     31120   312.52365     -928.27318     -6587.5814      4370.2567    
     31130   318.78845     -928.40121     -6901.4946      4371.1519    
     31140   297.2681      -927.78912     -6118.8907      4367.7271    
     31150   284.85955     -927.44497     -4510.0688      4360.5215    
     31160   305.37889     -928.012       -2375.1496      4350.5978    
     31170   310.9919      -928.15469      229.21404      4339.3498    
     31180   298.43699     -927.78058      2962.4061      4328.4154    
     31190   315.22679     -928.21466      5189.4967      4319.4518    
     31200   324.29248     -928.44431      6585.2827      4313.7838    
     31210   308.48507     -928.00825      6884.7043      4312.2023    
     31220   296.90327     -927.7114       6109.3371      4314.8388    
     31230   286.85662     -927.46337      4626.7647      4321.1967    
     31240   306.71821     -928.04095      2536.1805      4330.3377    
     31250   331.02944     -928.73521      35.47287       4340.9576    
     31260   314.91644     -928.30325     -2370.6409      4351.5126    
     31270   298.44999     -927.85652     -4397.0187      4360.5       
     31280   307.94381     -928.13072     -5843.084       4366.6548    
     31290   311.26923     -928.24782     -6419.1604      4369.0967    
     31300   297.02657     -927.89439     -6048.4221      4367.5017    
     31310   300.7351      -928.05196     -4906.714       4362.1456    
     31320   298.82918     -928.05447     -3008.8925      4353.8106    
     31330   302.71959     -928.20913     -696.49458      4343.7258    
     31340   307.13307     -928.36662      1652.3764      4333.3539    
     31350   287.38153     -927.84079      3802.119       4324.1525    
     31360   284.09635     -927.76132      5448.0586      4317.4154    
     31370   320.13152     -928.78131      6267.8992      4314.0968    
     31380   315.41869     -928.69312      6290.8608      4314.6565    
     31390   299.50602     -928.31581      5369.4207      4319.0566    
     31400   316.69401     -928.87039      3389.6028      4326.6891    
     31410   317.94878     -928.99027      855.96788      4336.3337    
     31420   269.99028     -927.73263     -1561.8976      4346.4365    
     31430   250.9152      -927.24853     -3697.5127      4355.4816    
     31440   280.9246      -928.11318     -5306.0691      4362.1383    
     31450   283.3123      -928.21228     -5979.5906      4365.4282    
     31460   280.37701     -928.17276     -5675.0005      4364.9574    
     31470   310.85623     -929.07477     -4613.1294      4360.9504    
     31480   327.06591     -929.60276     -2959.8474      4354.1209    
     31490   299.86259     -928.94257     -970.6981       4345.5435    
     31500   288.2545      -928.72047      1013.2942      4336.4762    
     31510   287.3256      -928.79886      2861.2393      4328.16      
     31520   282.27668     -928.77001      4281.7006      4321.713     
     31530   274.88154     -928.68464      4993.8587      4317.9678    
     31540   264.73739     -928.52633      5016.138       4317.3263    
     31550   263.46254     -928.61054      4444.5143      4319.7721    
     31560   271.12733     -928.93601      3240.2681      4324.9213    
     31570   268.35722     -928.95578      1531.0126      4332.0159    
     31580   267.14453     -928.99426     -362.97628      4339.9984    
     31590   268.43601     -929.07781     -2084.7575      4347.6976    
     31600   256.71699     -928.77593     -3375.5888      4354.0472    
     31610   270.75569     -929.17147     -4290.6515      4358.2363    
     31620   298.71507     -929.94795     -4709.3331      4359.7086    
     31630   277.49498     -929.36018     -4312.2122      4358.2441    
     31640   257.28707     -928.79525     -3289.4346      4354.1148    
     31650   285.85256     -929.56861     -1988.0182      4347.978     
     31660   287.09382     -929.56231     -340.00557      4340.6871    
     31670   261.05681     -928.78105      1434.1913      4333.2789    
     31680   268.54808     -928.90818      2897.1224      4326.8351    
     31690   278.01616     -929.06354      3932.0075      4322.2457    
     31700   277.28544     -928.9209       4386.0228      4320.1177    
     31710   267.19681     -928.51197      4225.9144      4320.704     
     31720   258.06404     -928.12605      3486.1335      4323.883     
     31730   273.10268     -928.40303      2292.2604      4329.1854    
     31740   282.08649     -928.5052       901.03225      4335.8732    
     31750   286.67971     -928.49627     -565.36543      4343.0786    
     31760   308.10014     -928.9702      -2048.2363      4349.8824    
     31770   322.93404     -929.28389     -3317.5873      4355.3649    
     31780   310.21861     -928.8644      -4122.2045      4358.745     
     31790   296.40688     -928.44064     -4382.1583      4359.5292    
     31800   287.23662     -928.15963     -3978.6299      4357.5802    
     31810   282.41092     -928.00272     -2962.062       4353.1759    
     31820   293.45401     -928.2822      -1574.4063      4346.9714    
     31830   296.06625     -928.32038      29.125313      4339.8526    
     31840   278.94884     -927.80175      1754.5538      4332.8327    
     31850   298.02992     -928.27923      3168.1942      4326.9605    
     31860   320.73838     -928.85465      4089.7621      4323.0916    
     31870   302.88952     -928.31662      4491.7659      4321.7764    
     31880   297.678       -928.14284      4167.2947      4323.2296    
     31890   323.50332     -928.83827      3161.6572      4327.2352    
     31900   306.5815      -928.35368      1755.3623      4333.174     
     31910   270.4684      -927.33435      17.876061      4340.165     
     31920   282.70651     -927.64167     -1756.4527      4347.1306    
     31930   294.23663     -927.91058     -2978.1733      4352.9897    
     31940   306.05407     -928.18286     -3703.8799      4356.9678    
     31950   314.26879     -928.35921     -3948.4859      4358.6133    
     31960   313.44592     -928.29647     -3657.0732      4357.7874    
     31970   308.62615     -928.13267     -2938.1109      4354.6867    
     31980   333.62486     -928.80593     -1985.7638      4349.7725    
     31990   330.65589     -928.71492     -653.30078      4343.6731    
     32000   293.30243     -927.67719      892.74639      4337.2293    
     32010   299.16758     -927.83719      2190.3645      4331.3843    
     32020   308.43685     -928.08909      3197.6493      4326.9404    
     32030   297.83055     -927.79341      3793.1939      4324.5037    
     32040   295.52998     -927.73454      3764.5203      4324.4153    
     32050   290.39663     -927.59855      3225.9867      4326.6522    
     32060   303.41083     -927.96552      2172.8917      4330.8675    
     32070   322.91637     -928.51425      828.07475      4336.412     
     32080   298.33727     -927.8421      -395.20977      4342.4668    
     32090   291.99012     -927.67344     -1578.5658      4348.257     
     32100   330.7639      -928.75973     -2744.3917      4353.0332    
     32110   308.35412     -928.15958     -3368.3789      4356.0937    
     32120   285.38717     -927.55309     -3491.0632      4357.0446    
     32130   323.95135     -928.66625     -3311.7166      4355.8039    
     32140   327.60095     -928.83139     -2576.1677      4352.5156    
     32150   299.36159     -928.12781     -1402.929       4347.6516    
     32160   301.8878      -928.28459     -168.06313      4341.9415    
     32170   305.86976     -928.48923      1011.7597      4336.1628    
     32180   292.96048     -928.22798      2066.5379      4331.051     
     32190   284.27194     -928.08372      2875.3925      4327.2504    
     32200   272.84661     -927.85547      3345.1787      4325.2513    
     32210   287.21298     -928.34025      3229.0931      4325.3191    
     32220   286.83733     -928.41537      2742.9059      4327.3862    
     32230   272.23767     -928.08565      2052.1389      4331.1547    
     32240   293.51207     -928.74279      1006.0006      4336.1809    
     32250   302.44103     -929.05373     -218.78276      4341.8203    
     32260   283.49172     -928.58136     -1429.3024      4347.3157    
     32270   307.71816     -929.30357     -2659.9597      4351.8979    
     32280   313.04068     -929.5083      -3419.4182      4354.8194    
     32290   271.95572     -928.42517     -3482.3988      4355.6159    
     32300   277.61139     -928.63298     -3280.8722      4354.2258    
     32310   297.4344      -929.23221     -2717.2148      4350.7929    
     32320   266.42178     -928.41202     -1511.4261      4345.7039    
     32330   252.93855     -928.0587      -90.832111      4339.7032    
     32340   276.0315      -928.69809      1221.5085      4333.6712    
     32350   275.98896     -928.67427      2498.4705      4328.4359    
     32360   274.98202     -928.60945      3497.7546      4324.7733    
     32370   288.88581     -928.94611      3953.1576      4323.2806    
     32380   296.70011     -929.10402      3848.748       4324.2332    
     32390   306.75095     -929.31773      3068.6919      4327.5532    
     32400   297.53029     -928.9877       1743.7086      4332.7612    
     32410   276.72562     -928.32272      214.15136      4339.0488    
     32420   270.99082     -928.05113     -1310.3182      4345.4679    
     32430   293.50675     -928.52771     -2641.7694      4351.0662    
     32440   300.46902     -928.54304     -3390.7913      4355.0253    
     32450   295.67923     -928.23037     -3626.0868      4356.8651    
     32460   300.25548     -928.18731     -3540.1656      4356.4275    
     32470   305.96118     -928.19224     -2997.0896      4353.7821    
     32480   301.26725     -927.9336      -1932.0627      4349.2874    
     32490   302.34779     -927.85896     -635.7995       4343.6083    
     32500   312.50379     -928.05337      728.07215      4337.5601    
     32510   317.74671     -928.12839      2082.5626      4331.9967    
     32520   311.94783     -927.91544      3234.3087      4327.7517    
     32530   314.31379     -927.94706      3879.3792      4325.5183    
     32540   320.4184      -928.10017      3891.1626      4325.6844    
     32550   318.81333     -928.05715      3218.1839      4328.2493    
     32560   312.53022     -927.89658      2011.6285      4332.8001    
     32570   303.47253     -927.66196      616.05916      4338.6043    
     32580   304.59155     -927.70625     -873.04504      4344.7925    
     32590   319.23131     -928.12572     -2339.3784      4350.4317    
     32600   299.04385     -927.58192     -3277.1605      4354.6239    
     32610   281.67733     -927.11567     -3603.8971      4356.777     
     32620   316.52054     -928.10161     -3523.8662      4356.6708    
     32630   330.32237     -928.51567     -2905.6597      4354.3711    
     32640   314.22267     -928.11498     -1887.463       4350.2678    
     32650   327.4664      -928.54005     -724.62625      4344.9985    
     32660   331.65968     -928.73022      551.14916      4339.3012    
     32670   293.08217     -927.7359       1745.5269      4333.97      
     32680   298.31889     -927.95506      2442.604       4329.7236    
     32690   299.3906      -928.06118      2943.3025      4327.011     
     32700   268.06002     -927.25901      3291.7423      4326.1419    
     32710   294.84861     -928.064        2971.0233      4327.2972    
     32720   322.24938     -928.89347      2224.7801      4330.2915    
     32730   291.27662     -928.10523      1440.4877      4334.6838    
     32740   292.82471     -928.21347      360.71222      4339.9681    
     32750   319.11053     -929.00807     -950.94168      4345.4719    
     32760   303.87871     -928.6523      -2151.231       4350.3893    
     32770   288.21007     -928.28154     -3100.4281      4353.9651    
     32780   284.62233     -928.24141     -3546.5778      4355.6108    
     32790   289.3702      -928.42857     -3463.9935      4355.0444    
     32800   303.42718     -928.87722     -2955.8319      4352.3143    
     32810   284.57614     -928.41028     -1892.7774      4347.7585    
     32820   272.63105     -928.12239     -514.59651      4342.0407    
     32830   291.07417     -928.6638       881.91609      4336.018     
     32840   286.32778     -928.55092      2217.7542      4330.5636    
     32850   267.79773     -928.04237      3341.7265      4326.504     
     32860   307.2715      -929.13977      3774.7423      4324.5039    
     32870   313.88954     -929.32972      3682.5381      4324.8412    
     32880   284.08594     -928.51698      3131.5361      4327.4606    
     32890   294.61131     -928.82345      1990.0552      4332.0125    
     32900   303.26035     -929.07322      529.31412      4337.8026    
     32910   270.01357     -928.14974     -915.71254      4343.9386    
     32920   277.87964     -928.35399     -2349.6055      4349.5045    
     32930   281.58829     -928.42275     -3251.1639      4353.6248    
     32940   275.21941     -928.19543     -3560.045       4355.7259    
     32950   292.65096     -928.60827     -3509.8432      4355.5959    
     32960   301.74412     -928.76358     -3052.0264      4353.2713    
     32970   284.51102     -928.1675      -2064.4413      4349.0549    
     32980   292.87807     -928.25949     -745.19577      4343.5644    
     32990   300.9487      -928.3127       771.43703      4337.6307    
     33000   302.16606     -928.16531      2171.1548      4332.1912    
     33010   326.67934     -928.66661      3103.3409      4328.0988    
     33020   329.8737      -928.59558      3683.9187      4325.9397    
     33030   312.13786     -927.98255      3808.5957      4326.0665    
     33040   320.0106      -928.11143      3164.9231      4328.5375    
     33050   315.34943     -927.91143      1987.4761      4332.9693    
     33060   294.31369     -927.2711       618.11543      4338.6486    
     33070   304.68297     -927.50469     -812.43836      4344.7271    
     33080   326.46683     -928.05529     -2200.77        4350.307     
     33090   304.29499     -927.39515     -3178.9936      4354.5314    
     33100   290.9285      -926.99004     -3752.499       4356.7723    
     33110   305.72743     -927.37106     -3766.7071      4356.671     
     33120   313.39736     -927.55981     -3004.4548      4354.2326    
     33130   327.93644     -927.94911     -1722.4813      4349.9289    
     33140   340.89215     -928.30821     -293.43261      4344.555     
     33150   333.46332     -928.11875      1095.8506      4339.0078    
     33160   340.78711     -928.35928      2134.5512      4334.1424    
     33170   344.97841     -928.54105      2707.5608      4330.6005    
     33180   313.14932     -927.74644      2978.1132      4328.7467    
     33190   289.3074      -927.17629      2879.5259      4328.7437    
     33200   307.30791     -927.7709       2266.7333      4330.5192    
     33210   303.45787     -927.76298      1503.1569      4333.7159    
     33220   285.16415     -927.3467       696.71725      4337.8647    
     33230   304.71126     -927.97268     -311.53059      4342.4519    
     33240   330.1167      -928.76796     -1331.4286      4346.8551    
     33250   306.02104     -928.19407     -2080.2641      4350.4472    
     33260   290.08802     -927.83935     -2668.6583      4352.7421    
     33270   300.8468      -928.22        -2925.8054      4353.3743    
     33280   299.9027      -928.27346     -2624.0205      4352.1921    
     33290   285.06671     -927.93263     -1910.4306      4349.3778    
     33300   293.16876     -928.21594     -1045.0021      4345.3693    
     33310   317.21801     -928.93723     -2.0303495      4340.7174    
     33320   311.67798     -928.83622      1191.3295      4336.0795    
     33330   301.51362     -928.60366      2150.0187      4332.1822    
     33340   301.23747     -928.64274      2661.4651      4329.6127    
     33350   290.98874     -928.40006      2801.7435      4328.695     
     33360   289.8616      -928.40548      2538.263       4329.514     
     33370   286.43339     -928.33956      1934.1683      4331.9125    
     33380   282.47856     -928.24915      1037.5643      4335.5191    
     33390   287.59028     -928.39934     -33.855891      4339.7821    
     33400   288.57619     -928.42474     -1048.0928      4344.0438    
     33410   286.5636      -928.35873     -1845.9229      4347.672     
     33420   295.03083     -928.57896     -2320.3129      4350.1655    
     33430   291.51758     -928.4647      -2391.5143      4351.2248    
     33440   291.39062     -928.44322     -2214.7514      4350.793     
     33450   317.28508     -929.14659     -1978.1608      4348.9667    
     33460   295.51778     -928.53139     -1368.1647      4345.9156    
     33470   264.70843     -927.66277     -448.37206      4342.0208    
     33480   289.77603     -928.33405      470.4339       4337.8431    
     33490   297.4858      -928.51233      1416.0503      4333.9636    
     33500   277.79156     -927.92611      2317.3314      4330.9724    
     33510   306.4943      -928.68178      2795.4078      4329.4099    
     33520   328.9546      -929.26706      2857.5644      4329.5808    
     33530   321.56104     -929.04148      2432.281       4331.5239    
     33540   314.29571     -928.83609      1483.0834      4334.9765    
     33550   292.97666     -928.24521      283.82063      4339.3666    
     33560   277.70358     -927.81572     -954.42934      4343.9547    
     33570   281.11228     -927.89407     -1997.4295      4347.9718    
     33580   263.77503     -927.38371     -2546.1069      4350.7734    
     33590   272.64003     -927.59065     -2760.4513      4351.9946    
     33600   300.58233     -928.31711     -2636.914       4351.494     
     33610   295.30891     -928.11944     -1950.8359      4349.361     
     33620   316.06711     -928.64909     -965.16341      4346.0112    
     33630   341.61479     -929.31978      45.278905      4342.0521    
     33640   317.12511     -928.61941      961.97495      4338.115     
     33650   308.0628      -928.3605       1625.2558      4334.7671    
     33660   320.41961     -928.70514      2020.5391      4332.4229    
     33670   288.0472      -927.8121       2276.3001      4331.3409    
     33680   287.8409      -927.81106      2080.6607      4331.6637    
     33690   306.46733     -928.33021      1537.5072      4333.2807    
     33700   285.63132     -927.75143      1007.0698      4335.8785    
     33710   290.27944     -927.8761       366.93285      4339.1203    
     33720   314.37859     -928.53849     -417.31923      4342.6048    
     33730   294.01871     -927.96699     -1112.9112      4345.8541    
     33740   295.40947     -927.99999     -1777.5862      4348.4207    
     33750   311.6682      -928.44652     -2181.7276      4349.894     
     33760   296.97327     -928.03742     -2123.0981      4350.0246    
     33770   298.53335     -928.08179     -1779.3948      4348.8325    
     33780   315.57627     -928.55893     -1222.7357      4346.527     
     33790   297.91735     -928.07458     -413.17246      4343.4617    
     33800   299.3727      -928.12053      385.07053      4340.1291    
     33810   315.72583     -928.57956      1065.7472      4337.0268    
     33820   316.70224     -928.61735      1573.1671      4334.5804    
     33830   312.86904     -928.53075      1806.7256      4333.1043    
     33840   297.95142     -928.14162      1783.0934      4332.7493    
     33850   285.22435     -927.81057      1531.6496      4333.507     
     33860   296.9503      -928.15431      1055.0859      4335.2245    
     33870   284.25401     -927.81435      582.93312      4337.6219    
     33880   269.07863     -927.39464      97.85521       4340.4056    
     33890   314.51773     -928.64861     -558.17586      4343.2621    
     33900   334.83812     -929.20845     -1065.6211      4345.7975    
     33910   297.67233     -928.18486     -1309.4         4347.6962    
     33920   300.08632     -928.26502     -1603.0239      4348.7788    
     33930   321.99663     -928.89121     -1804.0277      4348.8634    
     33940   300.26689     -928.31467     -1630.1713      4347.8341    
     33950   277.32143     -927.70444     -1205.5299      4345.7869    
     33960   284.68313     -927.92875     -655.12008      4342.9778    
     33970   287.20173     -928.00834      119.159        4339.759     
     33980   301.69697     -928.41549      919.88505      4336.604     
     33990   299.28827     -928.35075      1682.126       4334.0158    
     34000   303.15777     -928.46165      2114.9781      4332.4585    
     34010   318.45912     -928.89696      2092.4125      4332.2019    
     34020   297.05136     -928.32174      1863.8582      4333.2561    
     34030   286.23267     -928.04289      1343.3751      4335.4807    
     34040   312.83544     -928.80411      489.99702      4338.5544    
     34050   306.356       -928.65263     -329.90484      4341.9695    
     34060   284.10716     -928.0663      -1026.9986      4345.2162    
     34070   299.55145     -928.52891     -1708.9936      4347.8427    
     34080   289.71361     -928.292       -2057.202       4349.4318    
     34090   272.81675     -927.85784     -2106.538       4349.7511    
     34100   287.70879     -928.3029      -2030.8681      4348.7477    
     34110   294.26588     -928.51542     -1547.3824      4346.4786    
     34120   281.56418     -928.18939     -580.85381      4343.2475    
     34130   303.73171     -928.82784      368.17283      4339.6302    
     34140   321.57059     -929.3513       1066.6878      4336.2112    
     34150   292.55424     -928.58193      1655.2713      4333.4409    
     34160   277.03986     -928.18691      2025.4232      4331.6853    
     34170   285.79905     -928.46051      2084.4333      4331.1784    
     34180   289.53948     -928.59186      1899.5402      4331.9709    
     34190   276.98362     -928.26492      1517.3678      4333.9621    
     34200   292.93196     -928.72288      843.79508      4336.9166    
     34210   310.13365     -929.21207      45.005342      4340.4318    
     34220   298.73661     -928.90917     -812.63404      4344.0125    
     34230   275.76599     -928.28151     -1639.2375      4347.1214    
     34240   276.78363     -928.3108      -2229.9937      4349.2395    
     34250   276.96766     -928.30521     -2382.3827      4349.9929    
     34260   282.25878     -928.43056     -2158.9086      4349.2671    
     34270   301.11035     -928.92333     -1614.6498      4347.1866    
     34280   285.72341     -928.45717     -713.11919      4344.0907    
     34290   289.89435     -928.52601      141.96977      4340.5164    
     34300   310.44383     -929.03766      869.02057      4336.9974    
     34310   295.20671     -928.55035      1580.1079      4333.9996    
     34320   282.44809     -928.12998      2068.1058      4331.9626    
     34330   300.41519     -928.55346      2144.8841      4331.1893    
     34340   291.5131      -928.22247      2017.609       4331.755     
     34350   289.27224     -928.07376      1601.8661      4333.5881    
     34360   305.6433      -928.43309      942.63985      4336.4451    
     34370   296.93447     -928.09078      275.78875      4339.9383    
     34380   294.45281     -927.92244     -437.91346      4343.6523    
     34390   320.91625     -928.5535      -1221.4339      4347.1354    
     34400   314.68783     -928.28097     -1790.2466      4349.906     
     34410   316.47709     -928.24723     -2172.0774      4351.5888    
     34420   330.64855     -928.57068     -2330.0429      4351.929     
     34430   309.27034     -927.92487     -2110.6118      4350.8189    
     34440   297.50815     -927.55925     -1647.2573      4348.3728    
     34450   308.45714     -927.82693     -1012.2451      4344.8656    
     34460   292.41258     -927.34509     -53.973177      4340.6991    
     34470   285.25144     -927.10658      1011.2885      4336.46      
     34480   314.1904      -927.86401      1893.8041      4332.8019    
     34490   315.84361     -927.86484      2656.0249      4330.2933    
     34500   309.55088     -927.65594      3044.0533      4329.412     
     34510   338.42654     -928.43668      2816.8793      4330.4085    
     34520   343.58156     -928.58072      2214.772       4333.1837    
     34530   312.14752     -927.731        1320.8049      4337.3918    
     34540   316.64574     -927.88874      26.742936      4342.4844    
     34550   338.2845      -928.5349      -1345.9797      4347.6763    
     34560   315.95575     -927.97846     -2393.682       4352.12      
     34570   296.97415     -927.52498     -3135.7493      4355.1306    
     34580   314.01065     -928.08616     -3548.5089      4356.2101    
     34590   307.70787     -928.02067     -3389.4789      4355.079     
     34600   279.4672      -927.35432     -2643.4368      4351.8072    
     34610   272.58294     -927.27459     -1494.9185      4346.83      
     34620   292.07742     -927.92267     -87.364816      4340.8495    
     34630   312.21249     -928.59486      1366.9602      4334.7338    
     34640   305.13828     -928.52074      2664.7932      4329.3887    
     34650   291.21506     -928.25618      3588.6198      4325.6288    
     34660   308.88742     -928.87431      3915.34        4324.0419    
     34670   313.03002     -929.13064      3752.9887      4324.8743    
     34680   284.43113     -928.47125      3108.8791      4328.067     
     34690   284.11644     -928.57457      1838.1152      4333.2516    
     34700   302.11162     -929.16776      213.59884      4339.6831    
     34710   289.11123     -928.87661     -1325.3722      4346.3854    
     34720   284.26444     -928.78712     -2755.1566      4352.3829    
     34730   280.63803     -928.71144     -3905.9617      4356.7565    
     34740   267.08625     -928.34544     -4469.0544      4358.7522    
     34750   266.68345     -928.33489     -4323.3602      4357.9682    
     34760   276.6949      -928.60641     -3490.5092      4354.4474    
     34770   273.58464     -928.50489     -2064.8742      4348.6733    
     34780   278.04003     -928.60154     -310.07477      4341.5066    
     34790   294.45831     -929.01638      1501.9273      4334.0272    
     34800   296.0607      -929.01143      3153.0883      4327.3655    
     34810   297.23786     -928.99558      4314.1553      4322.5531    
     34820   294.36541     -928.87344      4822.3932      4320.3398    
     34830   284.58399     -928.56701      4543.825       4321.0826    
     34840   285.1976      -928.55248      3509.4668      4324.6667    
     34850   275.94394     -928.25771      2086.6081      4330.5276    
     34860   278.85212     -928.28811      433.68278      4337.8295    
     34870   294.38331     -928.65078     -1265.9821      4345.5696    
     34880   297.2679      -928.65023     -2746.5983      4352.6908    
     34890   297.79634     -928.58177     -3855.8186      4358.2373    
     34900   309.55262     -928.82898     -4526.7757      4361.4614    
     34910   315.35114     -928.92238     -4675.2178      4361.8832    
     34920   293.45622     -928.2632      -4174.5819      4359.357     
     34930   284.54859     -927.97308     -3174.3935      4354.1366    
     34940   284.58614     -927.92425     -1688.4906      4346.8169    
     34950   281.45379     -927.77291      246.20044      4338.3091    
     34960   283.77141     -927.75439      2378.8211      4329.8099    
     34970   296.26375     -928.00256      4295.8843      4322.6432    
     34980   307.91385     -928.22444      5593.3964      4318.0137    
     34990   316.51523     -928.37607      5949.4931      4316.7626    
     35000   329.36294     -928.67023      5359.3528      4319.1821    
     35010   324.50947     -928.49867      4058.1264      4325.0031    
     35020   309.54012     -928.06234      2049.1075      4333.4932    
     35030   313.0108      -928.13645     -509.02145      4343.4612    
     35040   312.77206     -928.0998      -2926.0646      4353.356     
     35050   288.10934     -927.38004     -4655.9167      4361.6556    
     35060   301.32206     -927.71315     -5845.7414      4367.1874    
     35070   326.29229     -928.3839      -6322.843       4369.1243    
     35080   316.75207     -928.12239     -5837.182       4367.0912    
     35090   300.53832     -927.69537     -4521.0785      4361.314     
     35100   313.24919     -928.07753     -2619.4441      4352.5598    
     35110   299.70335     -927.72487     -188.23566      4342.0015    
     35120   279.8843      -927.17915      2337.4846      4331.1376    
     35130   310.19645     -928.01007      4491.9476      4321.5351    
     35140   311.47917     -928.03461      6234.6373      4314.567     
     35150   290.95273     -927.46842      7156.579       4311.3394    
     35160   316.33198     -928.19904      6930.7007      4312.478     
     35170   343.13881     -929.00445      5732.565       4317.9459    
     35180   317.10865     -928.37607      3752.9287      4327.1118    
     35190   324.18652     -928.68934      869.30527      4338.8137    
     35200   317.63482     -928.63979     -2201.0059      4351.332     
     35210   292.42881     -928.07794     -4965.6041      4362.7439    
     35220   284.87294     -928.00917     -7168.7262      4371.2464    
     35230   274.27711     -927.86706     -8341.0781      4375.3647    
     35240   251.43073     -927.38023     -8108.3324      4374.2661    
     35250   283.19919     -928.41028     -6654.495       4367.9934    
     35260   290.92815     -928.7694      -3974.9879      4357.4167    
     35270   264.3732      -928.13196     -616.00855      4344.1805    
     35280   315.17007     -929.60256      2467.6023      4330.3473    
     35290   322.56662     -929.85131      5321.1387      4317.8723    
     35300   264.97149     -928.2748       7692.1195      4308.5429    
     35310   287.26738     -928.91353      8655.0764      4303.8092    
     35320   303.10225     -929.39223      8294.1151      4304.3342    
     35330   255.481       -928.12081      6969.1551      4310.0002    
     35340   260.40124     -928.29977      4583.13        4320.0759    
     35350   288.90461     -929.10509      1493.153       4333.1835    
     35360   270.12912     -928.55972     -1689.5316      4347.4751    
     35370   280.76963     -928.79689     -4784.846       4360.947     
     35380   295.87574     -929.13447     -7212.3126      4371.6182    
     35390   283.27436     -928.70739     -8528.0547      4377.8825    
     35400   289.88965     -928.83688     -8775.3084      4378.8041    
     35410   285.54553     -928.68484     -7830.3958      4374.1574    
     35420   261.87431     -928.00705     -5605.1286      4364.508     
     35430   282.87057     -928.55261     -2578.1787      4351.2288    
     35440   294.89063     -928.80823      937.95917      4336.2314    
     35450   294.88102     -928.69726      4415.6034      4321.7132    
     35460   299.11658     -928.68736      7280.4883      4309.8266    
     35470   295.53748     -928.46929      9122.604       4302.3361    
     35480   293.74288     -928.33269      9581.7199      4300.3791    
     35490   301.03383     -928.48572      8503.3105      4304.2742    
     35500   284.11335     -927.99105      6259.2975      4313.4477    
     35510   284.13407     -927.96742      3193.7494      4326.6025    
     35520   296.85732     -928.26954     -345.27028      4341.8995    
     35530   291.19981     -928.03056     -3801.1568      4357.1587    
     35540   300.5611      -928.1916      -6639.067       4370.1893    
     35550   312.0176      -928.41638     -8464.625       4379.1447    
     35560   320.98223     -928.60619     -9207.5175      4382.7937    
     35570   321.06704     -928.59769     -8791.9144      4380.6141    
     35580   301.38786     -928.07896     -7153.4336      4372.854     
     35590   299.79328     -928.07339     -4541.9579      4360.5521    
     35600   305.21572     -928.2469      -1212.4948      4345.3835    
     35610   279.65239     -927.52539      2453.3822      4329.4612    
     35620   276.78334     -927.39608      5842.2425      4315.0636    
     35630   304.26002     -928.09138      8505.4952      4304.2659    
     35640   292.51393     -927.71013      10142.454      4298.681     
     35650   309.23971     -928.15768      10069.261      4299.2661    
     35660   342.65439     -929.11213      8387.1793      4306.0003    
     35670   305.94798     -928.14839      5709.5424      4317.9266    
     35680   303.71453     -928.13464      1990.5509      4333.4232    
     35690   334.85598     -929.0177      -2179.4711      4350.221     
     35700   284.42667     -927.60432     -5663.3486      4365.7474    
     35710   278.47561     -927.40591     -8395.4815      4377.746     
     35720   319.50362     -928.52238     -10020.809      4384.4467    
     35730   285.68506     -927.59573     -9941.9169      4384.8195    
     35740   282.45888     -927.55067     -8574.1968      4378.8929    
     35750   324.92807     -928.79017     -6100.3608      4367.5727    
     35760   299.89863     -928.14836     -2509.6624      4352.5006    
     35770   296.42312     -928.07282      1303.2338      4335.9538    
     35780   326.25736     -928.89332      4780.9959      4320.3235    
     35790   283.42137     -927.67892      7896.8166      4307.7683    
     35800   296.00267     -928.01         9719.837       4300.1129    
     35810   332.16726     -929.03432      9986.2536      4298.4114    
     35820   288.56088     -927.89003      9018.2102      4302.8116    
     35830   289.30562     -928.0015       6586.9124      4312.6943    
     35840   315.33064     -928.81844      3117.2727      4326.591     
     35850   262.97086     -927.43244     -452.39121      4342.4086    
     35860   270.47357     -927.66851     -4024.7365      4357.9011    
     35870   314.74883     -928.90932     -7037.677       4370.8223    
     35880   288.23901     -928.20004     -8761.1415      4379.2809    
     35890   290.36311     -928.32004     -9334.299       4382.1637    
     35900   332.57029     -929.61518     -8794.7815      4379.1294    
     35910   294.9459      -928.74785     -6814.3524      4370.6039    
     35920   257.93431     -927.89038     -3876.3611      4357.8967    
     35930   293.30882     -929.02255     -645.37214      4342.9027    
     35940   290.17566     -929.06019      2849.7282      4327.7048    
     35950   266.71863     -928.49078      6036.5135      4314.4552    
     35960   277.87844     -928.86065      8179.8403      4305.0454    
     35970   282.28556     -929.04892      9117.5125      4300.7198    
     35980   270.65527     -928.80583      8766.7892      4301.9806    
     35990   263.60472     -928.69643      7114.0533      4308.5632    
     36000   255.46115     -928.54163      4533.9234      4319.4476    
     36010   267.128       -928.90251      1406.3365      4333.0482    
     36020   280.16305     -929.25837     -1874.5115      4347.4283    
     36030   267.95975     -928.87467     -4752.688       4360.5493    
     36040   281.23432     -929.17662     -6978.3841      4370.5952    
     36050   298.61591     -929.59085     -8211.2665      4376.1772    
     36060   287.21357     -929.22534     -8202.5692      4376.554     
     36070   278.30038     -928.9495      -7107.2786      4371.777     
     36080   279.15693     -928.94672     -5157.812       4362.603     
     36090   278.91636     -928.89549     -2492.9247      4350.338     
     36100   277.68046     -928.78394      612.18632      4336.7083    
     36110   270.17906     -928.46198      3683.026       4323.66      
     36120   272.49378     -928.38659      6171.4184      4313.0557    
     36130   280.18084     -928.45243      7787.3645      4306.3654    
     36140   279.99368     -928.31538      8330.834       4304.5024    
     36150   276.93312     -928.12759      7704.5795      4307.7317    
     36160   283.91462     -928.24204      5975.8918      4315.6277    
     36170   306.22843     -928.78953      3327.5365      4327.1097    
     36180   319.13661     -929.07386      164.07563      4340.5424    
     36190   303.58803     -928.56628     -2938.9986      4353.9702    
     36200   296.11574     -928.28133     -5595.1198      4365.4514    
     36210   309.91427     -928.59423     -7434.0227      4373.3254    
     36220   300.017       -928.27365     -8174.9877      4376.4594    
     36230   279.25154     -927.68073     -7753.2782      4374.43      
     36240   293.4614      -928.07603     -6221.0704      4367.5706    
     36250   308.31064     -928.48966     -3735.8203      4356.9254    
     36260   300.23712     -928.25497     -725.31548      4344.1138    
     36270   305.7332      -928.37823      2261.64        4331.0389    
     36280   296.4916      -928.07444      4917.949       4319.552     
     36290   287.93203     -927.78447      6864.2886      4311.2402    
     36300   302.07428     -928.13398      7837.2345      4307.2264    
     36310   297.67442     -927.98888      7806.6514      4308.0425    
     36320   299.48495     -928.03702      6549.4772      4313.6051    
     36330   325.88294     -928.77748      4175.7752      4323.1114    
     36340   303.6541      -928.1632       1416.7605      4335.1183    
     36350   301.73916     -928.09879     -1507.9043      4347.9045    
     36360   309.45838     -928.28275     -4196.6639      4359.65      
     36370   286.11217     -927.59604     -6225.1417      4368.6783    
     36380   294.60759     -927.79779     -7467.925       4373.7175    
     36390   324.85312     -928.62197     -7582.2074      4374.0268    
     36400   302.76797     -928.01891     -6385.0163      4369.5982    
     36410   303.12076     -928.05351     -4528.8463      4361.2174    
     36420   329.27368     -928.80501     -2221.6842      4350.1143    
     36430   300.0352      -928.01121      682.1917       4337.8026    
     36440   278.91151     -927.42125      3615.6107      4326.0903    
     36450   321.07695     -928.57696      5770.8295      4316.7386    
     36460   309.46772     -928.2498       7099.7692      4311.0371    
     36470   289.77048     -927.72154      7338.8295      4309.7308    
     36480   310.39489     -928.337        6437.7098      4312.9125    
     36490   300.2031      -928.11432      4774.0143      4320.0159    
     36500   283.23874     -927.70376      2420.1115      4329.9974    
     36510   294.54563     -928.0641      -363.37778      4341.3961    
     36520   288.60824     -927.9264      -2812.4096      4352.51      
     36530   294.38433     -928.10445     -4746.6779      4361.7999    
     36540   307.66234     -928.49642     -6054.8366      4368.0515    
     36550   316.03134     -928.77523     -6523.4906      4370.4612    
     36560   325.25737     -929.11404     -6108.5719      4368.763     
     36570   319.58844     -929.07538     -4952.0381      4363.255     
     36580   296.17126     -928.56036     -3178.5372      4354.7125    
     36590   281.12223     -928.26774     -956.44395      4344.2914    
     36600   269.38692     -928.04316      1394.7413      4333.3989    
     36610   251.70296     -927.61782      3615.1312      4323.497     
     36620   269.18397     -928.14406      5348.868       4315.9253    
     36630   294.39198     -928.88126      6427.5036      4311.7121    
     36640   293.85043     -928.91458      6705.7265      4311.4737    
     36650   282.52481     -928.65973      6017.5237      4315.3396    
     36660   286.88463     -928.84138      4243.9167      4322.8571    
     36670   302.14555     -929.31718      1726.6503      4332.9358    
     36680   289.39814     -928.99834     -879.4221       4344.0392    
     36690   271.40141     -928.50951     -3300.8981      4354.5424    
     36700   289.32618     -929.00028     -5385.7408      4362.9192    
     36710   288.48412     -928.96635     -6601.0037      4367.8816    
     36720   270.35539     -928.45982     -6673.6437      4368.6874    
     36730   273.37574     -928.54423     -5788.9588      4365.3097    
     36740   285.1533      -928.86505     -4179.6487      4358.339     
     36750   283.06857     -928.78371     -1982.1617      4348.8334    
     36760   282.82711     -928.72751      458.40656      4338.194     
     36770   283.89465     -928.67596      2794.8912      4327.9475    
     36780   281.22733     -928.49359      4769.579       4319.5296    
     36790   291.7237      -928.659        5997.2895      4314.1136    
     36800   283.85116     -928.30758      6411.191       4312.419     
     36810   280.66038     -928.08998      6004.8371      4314.6669    
     36820   299.16228     -928.47103      4782.8173      4320.5848    
     36830   316.21207     -928.80587      2848.8772      4329.4119    
     36840   318.28274     -928.72951      426.10354      4339.9532    
     36850   310.66172     -928.39351     -2091.5826      4350.7108    
     36860   309.26551     -928.24129     -4362.8278      4360.1119    
     36870   303.88014     -927.99427     -6011.1798      4366.7371    
     36880   282.82007     -927.33682     -6743.6048      4369.5613    
     36890   271.11347     -926.96083     -6470.4177      4368.1423    
     36900   301.2864      -927.75961     -5177.5244      4362.6909    
     36910   317.57085     -928.17716     -2972.5786      4354.0669    
     36920   312.02901     -927.99121     -314.08939      4343.6813    
     36930   337.90216     -928.67702      2191.0764      4333.1961    
     36940   345.47566     -928.86467      4344.8588      4324.1682    
     36950   318.56762     -928.11597      5822.5802      4317.897     
     36960   312.91248     -927.97856      6198.8665      4315.2363    
     36970   304.73178     -927.79014      5677.5757      4316.3952    
     36980   277.39307     -927.07457      4511.2743      4321.0415    
     36990   291.72276     -927.50961      2662.7425      4328.4326    
     37000   306.55365     -927.94647      641.10935      4337.4439    
     37010   302.19617     -927.83993     -1298.7416      4346.821     
     37020   317.79127     -928.28199     -3138.3589      4355.3419    
     37030   323.76035     -928.46342     -4602.2551      4361.8581    
     37040   304.96144     -927.97001     -5400.2891      4365.4633    
     37050   313.69623     -928.2591      -5528.9188      4365.6612    
     37060   307.28301     -928.14503     -4832.15        4362.405     
     37070   296.6454      -927.92073     -3481.0626      4356.1591    
     37080   313.07416     -928.44981     -1705.5927      4347.7983    
     37090   303.1136      -928.24246      503.88513      4338.4717    
     37100   281.37734     -927.69186      2713.3606      4329.5533    
     37110   302.67146     -928.32667      4317.2355      4322.3779    
     37120   308.77408     -928.54693      5353.0848      4317.9229    
     37130   286.61102     -927.99145      5745.5552      4316.7963    
     37140   306.56296     -928.61727      5102.3092      4319.1904    
     37150   321.49789     -929.12265      3649.3131      4324.7019    
     37160   279.63095     -928.05179      1854.8235      4332.4469    
     37170   273.5101      -927.95412     -271.69402      4341.2983    
     37180   292.22523     -928.5291      -2354.6931      4349.941     
     37190   278.28329     -928.18421     -3882.8519      4357.0902    
     37200   281.9333      -928.32118     -4832.1586      4361.7802    
     37210   303.35844     -928.95799     -5180.8244      4363.4183    
     37220   299.07507     -928.89419     -4822.7145      4361.8089    
     37230   297.85987     -928.92812     -3864.8311      4357.1981    
     37240   299.10368     -929.0381      -2355.0811      4350.2211    
     37250   281.90814     -928.63452     -450.01535      4341.8499    
     37260   262.56191     -928.15702      1465.7403      4333.2769    
     37270   264.62541     -928.2584       3105.2283      4325.6847    
     37280   275.41705     -928.59468      4469.295       4320.0813    
     37290   284.92673     -928.89967      5331.5805      4317.277     
     37300   291.14029     -929.12866      5347.0508      4317.7599    
     37310   291.66908     -929.21848      4505.7051      4321.5188    
     37320   294.57611     -929.38948      2941.2295      4328.0263    
     37330   290.17012     -929.36544      886.25983      4336.3141    
     37340   265.59665     -928.77292     -1271.9743      4345.1159    
     37350   252.31652     -928.47327     -3262.199       4353.0854    
     37360   259.45842     -928.72353     -4751.1725      4358.9839    
     37370   267.90864     -929.00436     -5420.1854      4361.8907    
     37380   256.70124     -928.73513     -5180.6833      4361.4021    
     37390   260.28535     -928.86854     -4271.5617      4357.6804    
     37400   277.55595     -929.36895     -2769.0307      4351.3289    
     37410   276.11244     -929.33096     -818.65268      4343.3191    
     37420   271.04223     -929.1689       1176.479       4334.8749    
     37430   284.90789     -929.50947      2898.5626      4327.2313    
     37440   285.69022     -929.46905      4294.0907      4321.4488    
     37450   284.09216     -929.35581      5087.4973      4318.3551    
     37460   289.15704     -929.42522      5004.5818      4318.3994    
     37470   265.88103     -928.705        4167.848       4321.5164    
     37480   260.51041     -928.47355      2758.641       4327.1805    
     37490   281.4796      -928.94717      1070.1135      4334.5235    
     37500   263.55954     -928.31784     -646.1494       4342.5019    
     37510   265.5624      -928.23237     -2440.6314      4350.0308    
     37520   297.03718     -928.94767     -3899.8192      4356.0014    
     37530   278.54662     -928.28376     -4474.6285      4359.5279    
     37540   267.96048     -927.86731     -4415.2327      4360.2409    
     37550   309.7182      -928.91561     -3993.0703      4358.1798    
     37560   310.84673     -928.84967     -2942.8625      4353.6539    
     37570   292.29204     -928.26104     -1376.4737      4347.3453    
     37580   312.42904     -928.75376      292.6913       4340.2353    
     37590   318.65798     -928.86276      1905.5106      4333.3743    
     37600   312.98453     -928.65347      3137.9665      4327.7469    
     37610   300.941       -928.27982      3861.3301      4324.0991    
     37620   278.94486     -927.63706      4155.1939      4322.8653    
     37630   288.54507     -927.87312      3840.3038      4324.1973    
     37640   307.96019     -928.38043      2905.7626      4327.8832    
     37650   286.31399     -927.74689      1663.3178      4333.3511    
     37660   297.71908     -928.0269       103.93104      4339.8167    
     37670   315.04079     -928.46173     -1428.7099      4346.3194    
     37680   290.39881     -927.73018     -2541.4865      4351.9178    
     37690   297.93261     -927.89305     -3330.1827      4355.9041    
     37700   318.81239     -928.42692     -3724.7468      4357.7892    
     37710   304.71491     -927.99937     -3538.9825      4357.3472    
     37720   306.6613      -928.02729     -2919.2493      4354.7019    
     37730   330.43625     -928.66753     -1943.0407      4350.2596    
     37740   320.21556     -928.37341     -608.55245      4344.6554    
     37750   303.14013     -927.89609      725.90403      4338.7193    
     37760   306.69958     -927.9923       1774.781       4333.2741    
     37770   307.53806     -928.0147       2662.7399      4328.9767    
     37780   298.11788     -927.75661      3413.3537      4326.371     
     37790   292.71197     -927.61384      3647.2177      4325.8873    
     37800   301.67238     -927.87225      3166.237       4327.6461    
     37810   322.44989     -928.46549      2231.879       4331.3508    
     37820   317.06784     -928.34251      1253.0817      4336.437     
     37830   316.21398     -928.35627      7.6545558      4342.274     
     37840   313.60179     -928.33133     -1531.2266      4348.0758    
     37850   284.32206     -927.56844     -2840.223       4352.9036    
     37860   286.79447     -927.68671     -3637.4575      4355.947     
     37870   307.38705     -928.31766     -3825.0621      4356.7137    
     37880   293.4375      -928.00174     -3394.4759      4355.0994    
     37890   289.39861     -927.96688     -2526.3362      4351.3823    
     37900   303.98062     -928.45527     -1249.1336      4346.127     
     37910   298.39407     -928.38658      364.51701      4340.1508    
     37920   307.72329     -928.73553      1749.9832      4334.4394    
     37930   318.57319     -929.14222      2679.7741      4329.8434    
     37940   293.25168     -928.55373      3313.6842      4326.9435    
     37950   292.03795     -928.6355       3388.0327      4326.1021    
     37960   298.98457     -928.94986      2908.2289      4327.3526    
     37970   270.03579     -928.25776      2173.322       4330.404     
     37980   267.50089     -928.27649      1145.0779      4334.7873    
     37990   284.6354      -928.82523     -65.192239      4339.862     
     38000   268.05244     -928.41763     -1148.148       4344.8864    
     38010   274.36029     -928.62627     -2132.5665      4349.1754    
     38020   292.34169     -929.14833     -2845.6478      4352.1198    
     38030   272.4276      -928.60973     -3048.023       4353.2887    
     38040   275.51151     -928.70167     -2908.928       4352.5513    
     38050   293.16685     -929.1902      -2420.7989      4350.0073    
     38060   280.71963     -928.83554     -1401.7068      4345.9897    
     38070   278.59902     -928.75737     -126.73434      4341.1355    
     38080   295.64905     -929.19831      1043.0495      4336.2319    
     38090   291.43769     -929.03916      2005.8912      4332.0075    
     38100   295.40539     -929.1041       2638.6909      4329.0496    
     38110   293.407       -929.00084      2950.8431      4327.7444    
     38120   267.2114      -928.22313      2858.5056      4328.2717    
     38130   270.03995     -928.24176      2182.9967      4330.5537    
     38140   290.45834     -928.7282       1183.186       4334.1774    
     38150   280.58169     -928.35631      241.42716      4338.5378    
     38160   275.04764     -928.09457     -691.57423      4343.0379    
     38170   289.55836     -928.37188     -1594.2775      4347.0926    
     38180   301.15363     -928.5565      -2245.6069      4350.1461    
     38190   303.5344      -928.49008     -2460.9719      4351.8008    
     38200   302.58369     -928.34645     -2285.5119      4351.9234    
     38210   315.41163     -928.60391     -1932.6457      4350.6186    
     38220   322.26857     -928.71788     -1434.8072      4348.116     
     38230   301.79928     -928.09789     -737.71032      4344.7404    
     38240   294.13032     -927.84764      43.358593      4340.9299    
     38250   317.97971     -928.48058      724.31785      4337.1652    
     38260   295.16041     -927.82537      1481.0501      4333.8856    
     38270   274.73713     -927.23919      2071.1263      4331.5453    
     38280   307.257       -928.12147      2285.3648      4330.4942    
     38290   313.47337     -928.27744      2349.8411      4330.8754    
     38300   294.26706     -927.7363       2134.9155      4332.7155    
     38310   312.39995     -928.23599      1423.8625      4335.8639    
     38320   332.39999     -928.79401      445.68128      4339.8866    
     38330   315.387       -928.33542     -512.86574      4344.1867    
     38340   308.24169     -928.15875     -1541.4904      4348.1518    
     38350   296.09907     -927.84338     -2318.7897      4351.1542    
     38360   298.08793     -927.92032     -2708.5109      4352.71      
     38370   303.26392     -928.08761     -2687.2966      4352.5783    
     38380   303.02392     -928.10801     -2281.16        4350.7773    
     38390   303.20615     -928.14373     -1505.0429      4347.5711    
     38400   298.45384     -928.04173     -506.87889      4343.4493    
     38410   304.38643     -928.23548      475.27237      4339.0314    
     38420   306.04057     -928.31116      1399.7016      4334.9339    
     38430   295.28425     -928.04346      2192.7135      4331.7298    
     38440   295.15476     -928.07047      2663.0911      4329.8987    
     38450   306.31841     -928.41517      2684.7124      4329.7195    
     38460   300.57588     -928.29506      2312.339       4331.205     
     38470   312.44195     -928.67143      1529.1578      4334.1154    
     38480   308.28933     -928.61069      701.65041      4337.9827    
     38490   291.56584     -928.20272     -172.09014      4342.286     
     38500   303.73039     -928.59617     -1227.5449      4346.4672    
     38510   309.73066     -928.82602     -2121.5144      4349.8802    
     38520   270.45222     -927.79707     -2545.8475      4351.9806    
     38530   276.96693     -928.03241     -2804.1446      4352.48      
     38540   293.69815     -928.55072     -2675.1333      4351.2336    
     38550   271.46122     -927.98192     -1944.6417      4348.3426    
     38560   281.90361     -928.31181     -967.34504      4344.2534    
     38570   305.8681      -929.01231      150.1926       4339.5833    
     38580   292.63126     -928.67816      1399.2763      4335.0385    
     38590   295.13969     -928.77974      2380.1155      4331.3778    
     38600   316.32606     -929.40807      2799.6541      4329.1923    
     38610   294.14093     -928.84347      2825.159       4328.7491    
     38620   280.50415     -928.5206       2393.6368      4330.0537    
     38630   287.61412     -928.77487      1585.2045      4332.8383    
     38640   268.55709     -928.29751      671.47476      4336.6122    
     38650   258.09915     -928.04479     -336.17617      4340.8026    
     38660   279.33763     -928.65852     -1326.0522      4344.7812    
     38670   282.13133     -928.74972     -1884.2263      4347.9491    
     38680   281.83995     -928.74755     -2104.0116      4349.9487    
     38690   310.94537     -929.55976     -2288.8646      4350.6218    
     38700   303.14036     -929.35096     -2145.9836      4349.8738    
     38710   272.51741     -928.51        -1646.9298      4347.7994    
     38720   276.55328     -928.62232     -1072.6365      4344.6998    
     38730   282.39314     -928.76997     -337.88486      4340.9472    
     38740   261.17906     -928.149        589.5673       4337.009     
     38750   269.64225     -928.33119      1378.0485      4333.4466    
     38760   294.05518     -928.92946      2031.9959      4330.7536    
     38770   286.30468     -928.61717      2588.7007      4329.3395    
     38780   289.49383     -928.60045      2701.504       4329.5281    
     38790   314.9098      -929.18907      2268.4937      4331.382     
     38800   300.35275     -928.6657       1566.2557      4334.6485    
     38810   283.6566      -928.09142      590.76797      4338.8873    
     38820   307.52002     -928.63771     -554.82528      4343.4919    
     38830   308.69578     -928.55016     -1506.3155      4347.7644    
     38840   300.69981     -928.22035     -2324.736       4351.0974    
     38850   303.137       -928.19097     -2893.9634      4352.9778    
     38860   282.86338     -927.54047     -2837.4544      4353.0686    
     38870   295.48413     -927.81088     -2357.4439      4351.3931    
     38880   318.35974     -928.36586     -1601.8162      4348.2508    
     38890   294.66677     -927.63706     -568.13845      4344.1258    
     38900   300.17584     -927.72651      385.24738      4339.6512    
     38910   335.40865     -928.6432       1230.2097      4335.4254    
     38920   306.38441     -927.78834      2183.5507      4331.9926    
     38930   284.48734     -927.14316      2765.0173      4329.9173    
     38940   324.55179     -928.2214       2747.3446      4329.5458    
     38950   323.95618     -928.17998      2585.0085      4330.8944    
     38960   309.28771     -927.76393      2177.5726      4333.8568    
     38970   341.34617     -928.65834      1162.4768      4338.1577    
     38980   345.31929     -928.79198     -117.09761      4343.186     
     38990   314.43511     -927.97574     -1390.7143      4348.1525    
     39000   306.30459     -927.79802     -2604.1039      4352.2526    
     39010   299.50265     -927.66038     -3360.266       4354.7389    
     39020   280.06001     -927.17124     -3458.9863      4355.1398    
     39030   277.08117     -927.13341     -3058.6981      4353.3822    
     39040   289.20328     -927.5083      -2165.3141      4349.723     
     39050   303.8937      -927.94882     -836.19661      4344.7307    
     39060   327.0274      -928.62685      575.39009      4339.2268    
     39070   330.26244     -928.76586      1883.4061      4334.0924    
     39080   316.62269     -928.45312      2854.9803      4330.1328    
     39090   314.18967     -928.46804      3239.5804      4327.9368    
     39100   303.76344     -928.27694      3150.2068      4327.7486    
     39110   291.13776     -928.03053      2718.781       4329.5198    
     39120   303.81643     -928.49354      1852.6575      4332.9765    
     39130   302.64313     -928.57853      757.27217      4337.5942    
     39140   286.70414     -928.24917     -406.29194      4342.6973    
     39150   291.26027     -928.47934     -1608.9857      4347.5552    
     39160   293.11049     -928.63011     -2596.4886      4351.4208    
     39170   268.42861     -928.02991     -3065.9041      4353.6842    
     39180   276.07753     -928.31259     -3199.9991      4354.0306    
     39190   290.84952     -928.78507     -2920.8205      4352.3791    
     39200   286.38117     -928.71539     -2087.7207      4348.9164    
     39210   289.24245     -928.8385      -904.95874      4344.1605    
     39220   292.83487     -928.97089      361.75094      4338.846     
     39230   280.25669     -928.64081      1532.7992      4333.7613    
     39240   282.32926     -928.70489      2468.9769      4329.6318    
     39250   288.99407     -928.88779      3100.1253      4327.0368    
     39260   283.86276     -928.73887      3299.1865      4326.3623    
     39270   286.43418     -928.80157      2915.4423      4327.7245    
     39280   294.99376     -929.02878      2065.3256      4330.8941    
     39290   285.77675     -928.75981      1041.6492      4335.3627    
     39300   275.95587     -928.46815     -94.508518      4340.4962    
     39310   283.14622     -928.64022     -1308.4708      4345.5826    
     39320   278.33552     -928.47132     -2266.6294      4349.8754    
     39330   279.98685     -928.47895     -2867.8667      4352.7687    
     39340   298.38915     -928.95202     -3109.2289      4353.8763    
     39350   297.5124      -928.89558     -2902.9602      4353.047     
     39360   282.67        -928.45738     -2313.0768      4350.406     
     39370   285.69044     -928.51462     -1459.2938      4346.3192    
     39380   284.52392     -928.44868     -315.00269      4341.331     
     39390   282.34043     -928.34717      923.01073      4336.1517    
     39400   286.39113     -928.41046      2028.8653      4331.547     
     39410   289.99431     -928.45597      2856.5355      4328.2003    
     39420   297.20157     -928.60087      3259.2788      4326.6205    
     39430   307.93365     -928.84836      3163.4171      4327.0557    
     39440   293.1297      -928.39362      2694.8087      4329.4596    
     39450   288.95589     -928.23702      1768.2327      4333.5409    
     39460   307.03586     -928.6932       488.42083      4338.7323    
     39470   299.61041     -928.43726     -743.476        4344.2594    
     39480   293.5099      -928.2168      -1837.5523      4349.3505    
     39490   319.49116     -928.88587     -2836.1522      4353.3055    
     39500   307.412       -928.50399     -3390.4418      4355.5071    
     39510   277.75788     -927.64348     -3426.7608      4355.5996    
     39520   299.5541      -928.21208     -3103.0878      4353.5427    
     39530   292.34223     -927.96985     -2207.1333      4349.5543    
     39540   268.10056     -927.25023     -897.01645      4344.1917    
     39550   287.65881     -927.73067      556.60777      4338.2676    
     39560   314.08482     -928.38214      2038.4397      4332.692     
     39570   323.99733     -928.57262      3255.4615      4328.378     
     39580   337.67616     -928.88288      3862.7116      4326.0665    
     39590   323.61211     -928.44583      3867.2062      4326.1414    
     39600   316.89167     -928.23455      3189.7842      4328.608     
     39610   323.83985     -928.41666      1927.9579      4333.0579    
     39620   283.88859     -927.29973      556.49267      4338.7417    
     39630   289.20977     -927.43285     -930.68161      4344.8009    
     39640   322.80896     -928.34102     -2283.85        4350.3123    
     39650   295.63615     -927.56247     -3110.8866      4354.4383    
     39660   292.09582     -927.44298     -3580.6755      4356.6323    
     39670   335.42773     -928.62876     -3640.5105      4356.588     
     39680   301.9158      -927.69134     -2871.9634      4354.288     
     39690   285.8716      -927.24411     -1821.6544      4350.1804    
     39700   336.46617     -928.64474     -838.31505      4344.9084    
     39710   324.01989     -928.30093      495.91144      4339.1218    
     39720   302.86718     -927.72665      1869.6339      4333.6407    
     39730   322.433       -928.29392      2857.6425      4329.3022    
     39740   310.56803     -928.00595      3472.6547      4326.7284    
     39750   303.7749      -927.87753      3538.0674      4326.297     
     39760   321.66234     -928.4603       3050.9707      4328.0555    
     39770   294.26244     -927.80447      2286.2575      4331.7296    
     39780   286.44477     -927.69409      1023.2437      4336.8383    
     39790   309.14196     -928.43582     -580.74427      4342.6073    
     39800   296.91031     -928.21065     -1891.8099      4348.0662    
     39810   286.99102     -928.04203     -2777.4854      4352.3885    
     39820   303.97309     -928.6212      -3372.3285      4354.993     
     39830   294.19958     -928.4594      -3453.8464      4355.5044    
     39840   284.06181     -928.27929     -2989.1578      4353.8623    
     39850   305.05915     -928.96007     -2214.0698      4350.3378    
     39860   303.48395     -929.01292     -1087.1492      4345.422     
     39870   282.17664     -928.50408      254.9002       4339.8177    
     39880   291.35018     -928.82623      1404.7033      4334.3453    
     39890   291.3891      -928.88525      2330.1494      4329.7266    
     39900   266.74061     -928.24497      3027.6464      4326.5434    
     39910   266.76704     -928.27525      3244.7394      4325.2203    
     39920   275.26124     -928.52851      3026.3961      4325.9038    
     39930   274.44164     -928.51161      2528.6798      4328.4804    
     39940   290.35364     -928.9499       1677.3416      4332.6479    
     39950   296.75344     -929.11511      565.41026      4337.8922    
     39960   287.99555     -928.85211     -627.91984      4343.5342    
     39970   294.66811     -929.00889     -1832.4085      4348.8265    
     39980   305.64463     -929.27971     -2884.8082      4353.0106    
     39990   278.44167     -928.48912     -3510.0366      4355.4236    
     40000   267.92747     -928.15891     -3674.1307      4355.6529    
     40010   289.62901     -928.71194     -3282.1733      4353.5839    
     40020   286.29908     -928.55735     -2217.0196      4349.4626    
     40030   281.73991     -928.35793     -866.78893      4343.9326    
     40040   300.37739     -928.7853       472.46046      4337.8264    
     40050   290.49537     -928.40558      1909.9933      4331.9948    
     40060   272.79426     -927.80364      3203.1234      4327.3272    
     40070   296.02375     -928.32822      3825.4527      4324.6069    
     40080   317.8476      -928.80679      3786.7101      4324.235     
     40090   303.34491     -928.29129      3363.549       4326.2213    
     40100   298.75791     -928.07018      2497.1564      4330.3177    
     40110   309.16332     -928.27207      1193.7459      4336.0045    
     40120   310.13567     -928.21853     -356.24344      4342.4905    
     40130   306.24634     -928.03916     -1837.6924      4348.8229    
     40140   301.46985     -927.84375     -2955.7307      4354.0759    
     40150   311.24266     -928.06271     -3677.2681      4357.5252    
     40160   320.02751     -928.26977     -3963.844       4358.6931    
     40170   307.55112     -927.90537     -3649.0007      4357.3859    
     40180   305.63277     -927.84693     -2805.9159      4353.7808    
     40190   317.46469     -928.17763     -1651.0293      4348.3866    
     40200   298.00477     -927.64085     -187.53974      4341.9291    
     40210   297.45883     -927.62415      1337.5731      4335.3134    
     40220   322.92517     -928.32774      2686.1946      4329.4853    
     40230   303.71433     -927.79509      3781.9142      4325.2929    
     40240   301.78628     -927.74888      4251.087       4323.4089    
     40250   334.26994     -928.67049      4038.0897      4324.1425    
     40260   326.46214     -928.49308      3344.0515      4327.4001    
     40270   300.37674     -927.81853      2058.965       4332.7695    
     40280   292.39885     -927.64041      318.59908      4339.4788    
     40290   290.39538     -927.61316     -1423.5455      4346.4736    
     40300   302.40459     -927.96467     -2849.6605      4352.668     
     40310   306.65182     -928.0997      -3743.1103      4357.1549    
     40320   297.85508     -927.87637     -4112.7538      4359.3404    
     40330   317.21256     -928.44286     -4032.6884      4358.9554    
     40340   335.36874     -928.99427     -3288.3174      4356.0385    
     40350   304.43095     -928.19521     -1956.2447      4351.04      
     40360   302.72609     -928.20653     -670.73829      4344.7526    
     40370   319.58432     -928.73486      598.88554      4337.9857    
     40380   281.10266     -927.7202       2116.6546      4331.5554    
     40390   275.42906     -927.59985      3265.8835      4326.3792    
     40400   313.77644     -928.70026      3817.8536      4323.1739    
     40410   284.9451      -927.93798      4083.7818      4322.3232    
     40420   269.37577     -927.53993      3767.3264      4323.999     
     40430   303.15956     -928.50785      2828.3063      4328.0336    
     40440   303.16514     -928.53553      1592.4378      4333.8925    
     40450   295.46312     -928.34508      51.352513      4340.825     
     40460   318.1707      -928.99603     -1624.5558      4347.881     
     40470   305.89015     -928.67643     -2896.4117      4354.0312    
     40480   300.05258     -928.53991     -3886.8273      4358.4385    
     40490   314.06546     -928.9663      -4562.3993      4360.4437    
     40500   282.88678     -928.14972     -4426.1861      4359.6127    
     40510   266.46736     -927.74248     -3595.1828      4355.9905    
     40520   304.56934     -928.84895     -2410.12        4350.0571    
     40530   298.01618     -928.71778     -712.06976      4342.5608    
     40540   268.83499     -927.95181      1213.161       4334.5489    
     40550   286.22602     -928.47268      2899.5235      4327.204     
     40560   287.46486     -928.54717      4296.5856      4321.5904    
     40570   273.56212     -928.20933      5049.3238      4318.5769    
     40580   288.71834     -928.69364      4892.0075      4318.645     
     40590   291.1095      -928.84264      4153.8803      4321.7577    
     40600   273.34347     -928.43979      2975.7152      4327.5089    
     40610   286.26481     -928.88744      1200.0565      4335.1938    
     40620   305.38626     -929.50707     -856.3384       4343.7461    
     40630   293.44512     -929.26231     -2669.2994      4351.907     
     40640   279.98455     -928.96842     -4113.3099      4358.5166    
     40650   274.07477     -928.87746     -5135.1375      4362.624     
     40660   272.18761     -928.89441     -5563.9519      4363.5419    
     40670   274.92978     -929.03991     -5179.8623      4360.9619    
     40680   262.08976     -928.74646     -3857.9526      4355.0956    
     40690   242.30067     -928.23607     -1825.5787      4346.7433    
     40700   263.61935     -928.83446      410.03067      4337.1473    
     40710   288.64171     -929.50412      2671.807       4327.7055    
     40720   272.84178     -929.01868      4742.8999      4319.8311    
     40730   278.27274     -929.11346      5977.8934      4314.7942    
     40740   298.76343     -929.62405      6194.1654      4313.3834    
     40750   278.79259     -929.01686      5628.1463      4315.7949    
     40760   271.09414     -928.75348      4195.3159      4321.7282    
     40770   281.40322     -928.97265      2076.264       4330.3603    
     40780   268.21107     -928.51405     -258.68978      4340.4365    
     40790   262.55308     -928.24045     -2531.4804      4350.5189    
     40800   284.87798     -928.71704     -4468.3578      4359.1702    
     40810   292.30573     -928.76885     -5714.3747      4365.1406    
     40820   291.78603     -928.61647     -6184.5622      4367.5843    
     40830   296.97172     -928.64637     -5825.7196      4366.1475    
     40840   307.52444     -928.84783     -4676.331       4361.0104    
     40850   312.14305     -928.90253     -2889.726       4352.8631    
     40860   286.00975     -928.11232     -562.94001      4342.819     
     40870   276.31979     -927.77288      1881.5013      4332.3174    
     40880   296.07091     -928.23538      4062.7764      4322.8771    
     40890   304.29653     -928.37448      5722.1813      4315.8586    
     40900   294.07966     -928.01665      6608.1348      4312.3026    
     40910   297.93288     -928.07088      6508.7011      4312.7843    
     40920   297.6227      -928.02633      5513.3531      4317.3022    
     40930   292.17797     -927.84748      3734.5593      4325.3094    
     40940   316.14556     -928.48053      1256.0254      4335.7575    
     40950   317.55946     -928.47639     -1353.3371      4347.1628    
     40960   303.87129     -928.04796     -3727.0442      4357.9004    
     40970   309.45848     -928.15291     -5670.763       4366.444     
     40980   319.74964     -928.39931     -6883.0572      4371.5178    
     40990   315.58991     -928.27084     -7104.8843      4372.2998    
     41000   300.38363     -927.86281     -6282.8505      4368.5936    
     41010   290.83154     -927.62269     -4495.7909      4360.8803    
     41020   304.50632     -928.02108     -2102.8053      4350.2568    
     41030   314.05803     -928.29081      555.84008      4338.2169    
     41040   300.81826     -927.91338      3229.7332      4326.4261    
     41050   290.69864     -927.61029      5559.6221      4316.5459    
     41060   302.54951     -927.91612      7151.2256      4310.0157    
     41070   312.32265     -928.18145      7794.4434      4307.8343    
     41080   303.65709     -927.96224      7334.1351      4310.4348    
     41090   305.99579     -928.07019      5659.3446      4317.5876    
     41100   315.39073     -928.38066      3103.6129      4328.3409    
     41110   314.97021     -928.41345      148.97117      4341.1813    
     41120   307.86445     -928.24835     -2947.1524      4354.2857    
     41130   310.00101     -928.33317     -5739.9499      4365.7009    
     41140   299.99721     -928.0912      -7566.2525      4373.6375    
     41150   289.35832     -927.85562     -8228.9465      4376.8721    
     41160   298.40169     -928.20029     -7790.1825      4374.9168    
     41170   299.93765     -928.36843     -6299.9202      4368.0107    
     41180   291.39989     -928.27044     -3933.0768      4357.0792    
     41190   285.32977     -928.22968     -940.31984      4343.6169    
     41200   280.38574     -928.19195      2378.5967      4329.5103    
     41210   286.49285     -928.43196      5405.9249      4316.8157    
     41220   299.64246     -928.86356      7624.7977      4307.3917    
     41230   281.07367     -928.42404      8904.8426      4302.6104    
     41240   283.49361     -928.58447      8841.0413      4303.2553    
     41250   310.66797     -929.45927      7360.9524      4309.3269    
     41260   299.53128     -929.28361      4782.2135      4319.9896    
     41270   270.96946     -928.59764      1432.533       4333.7169    
     41280   281.29512     -928.94755     -2234.0174      4348.4666    
     41290   269.05885     -928.62777     -5354.0907      4361.9684    
     41300   250.7611      -928.10947     -7583.1833      4372.2167    
     41310   263.43471     -928.44368     -8838.8207      4377.7356    
     41320   272.82329     -928.69611     -8780.0706      4377.6936    
     41330   281.0081      -928.92873     -7371.6674      4372.1036    
     41340   301.53541     -929.5066      -4980.4603      4361.8437    
     41350   295.32054     -929.32748     -1890.2298      4348.4417    
     41360   280.54654     -928.88201      1452.9529      4333.8532    
     41370   285.5563      -928.95156      4563.4822      4320.1645    
     41380   265.15201     -928.28927      7205.1694      4309.3026    
     41390   274.10701     -928.43712      8762.3105      4302.8524    
     41400   309.69338     -929.33091      8947.891       4301.7475    
     41410   284.27614     -928.55294      7971.9166      4306.1237    
     41420   262.06094     -927.88338      5815.5275      4315.4086    
     41430   305.31222     -929.00979      2586.7527      4328.3091    
     41440   300.89389     -928.77534     -757.68235      4342.8957    
     41450   263.78835     -927.61926     -3809.5835      4357.0885    
     41460   283.31788     -928.02067     -6548.8984      4368.9293    
     41470   306.60013     -928.52314     -8315.6599      4376.6774    
     41480   296.36427     -928.1334      -8712.6439      4379.1965    
     41490   315.67268     -928.61476     -8037.3645      4376.2015    
     41500   319.55071     -928.70774     -6251.2357      4368.1442    
     41510   294.86014     -928.02761     -3445.485       4356.1943    
     41520   300.77882     -928.18649     -194.65175      4342.139     
     41530   312.98572     -928.49699      3044.8077      4328.0308    
     41540   294.80421     -927.94774      5914.0303      4315.8812    
     41550   295.50369     -927.92251      7804.3956      4307.4137    
     41560   301.81991     -928.07025      8563.3243      4303.7534    
     41570   289.09333     -927.71487      8263.4541      4305.3464    
     41580   304.35346     -928.15868      6637.1254      4311.9814    
     41590   307.46571     -928.27098      4113.5119      4322.689     
     41600   288.64943     -927.76161      1207.1718      4335.9445    
     41610   312.28236     -928.40628     -1980.0705      4349.9362    
     41620   319.22714     -928.56721     -4883.2367      4362.6796    
     41630   301.61385     -928.04529     -7031.7996      4372.3405    
     41640   316.07466     -928.43154     -8324.0198      4377.5387    
     41650   312.35559     -928.345       -8431.3347      4377.4721    
     41660   290.96632     -927.7981      -7238.1111      4372.1072    
     41670   288.09685     -927.77459     -5021.7064      4362.2397    
     41680   285.87723     -927.7533      -2044.8327      4349.3242    
     41690   290.89927     -927.90094      1324.2323      4335.2713    
     41700   312.02777     -928.46624      4504.3584      4322.1817    
     41710   326.96449     -928.85346      6965.1378      4311.9897    
     41720   322.91257     -928.73815      8328.5381      4306.1497    
     41730   298.52663     -928.09399      8471.0213      4305.4397    
     41740   284.6499      -927.76785      7330.3146      4309.8981    
     41750   295.48772     -928.13709      5079.7057      4318.806     
     41760   307.00132     -928.51979      2192.2846      4330.786     
     41770   292.03204     -928.14861     -865.63662      4344.0577    
     41780   285.25221     -927.97937     -3778.7447      4356.7103    
     41790   297.60522     -928.32622     -6155.9383      4366.9146    
     41800   300.27992     -928.41033     -7529.1731      4373.19      
     41810   295.37327     -928.30733     -7831.1131      4374.6843    
     41820   278.60268     -927.8957      -7020.3064      4371.2543    
     41830   285.6343      -928.15317     -5238.3337      4363.4732    
     41840   305.4111      -928.76087     -2689.4912      4352.534     
     41850   306.24389     -928.82971      224.82514      4340.0861    
     41860   310.63726     -928.98568      2988.3401      4327.9602    
     41870   306.27916     -928.89609      5309.3552      4317.855     
     41880   287.9433      -928.42533      6890.4264      4311.1487    
     41890   280.301       -928.26498      7433.6552      4308.7355    
     41900   280.83836     -928.34889      6856.1228      4310.8795    
     41910   278.31592     -928.3563       5305.0713      4317.1807    
     41920   286.83249     -928.6678       3019.8004      4326.6564    
     41930   278.01901     -928.48052      408.10798      4337.8888    
     41940   279.44982     -928.55206     -2258.3463      4349.2451    
     41950   293.60743     -928.95967     -4548.2387      4359.0677    
     41960   265.55925     -928.18652     -6028.5293      4365.9436    
     41970   262.6092      -928.10673     -6689.9865      4368.9622    
     41980   311.61172     -929.47642     -6443.4571      4367.758     
     41990   297.34748     -929.10084     -5036.9394      4362.5739    
     42000   268.12477     -928.30829     -2952.5917      4354.3494    
     42010   311.59833     -929.51832     -840.00428      4344.4242    
     42020   315.99008     -929.62752      1425.9454      4334.1743    
     42030   274.94332     -928.46572      3582.5321      4325.0053    
     42040   275.98833     -928.46212      4994.6469      4318.1888    
     42050   267.31316     -928.17681      5737.9338      4314.5509    
     42060   256.98631     -927.83796      5760.7061      4314.4807    
     42070   287.31863     -928.61376      4946.7252      4317.9226    
     42080   293.95826     -928.71036      3588.8323      4324.3407    
     42090   292.53289     -928.56972      1779.2199      4332.8627    
     42100   306.12263     -928.82546     -417.05865      4342.3396    
     42110   289.12862     -928.21657     -2439.1211      4351.4197    
     42120   287.28767     -928.02595     -4056.2147      4358.8476    
     42130   320.10162     -928.79359     -5190.6273      4363.6265    
     42140   306.23737     -928.28134     -5456.1848      4365.1041    
     42150   289.00383     -927.70781     -4943.7504      4363.1648    
     42160   323.90064     -928.59633     -3925.6084      4358.1838    
     42170   325.50458     -928.57202     -2255.0319      4350.882     
     42180   285.74401     -927.41344     -187.75047      4342.3505    
     42190   291.81152     -927.52474      1663.3715      4333.8748    
     42200   316.75726     -928.15112      3279.5757      4326.6047    
     42210   314.6763      -928.03401      4645.1317      4321.5103    
     42220   308.77841     -927.82883      5267.0646      4319.3551    
     42230   323.08383     -928.2048       4869.2298      4320.4422    
     42240   316.03887     -928.00653      3893.7724      4324.4921    
     42250   303.33602     -927.66202      2465.8503      4330.8587    
     42260   316.45505     -928.03559      560.05526      4338.6183    
     42270   302.77099     -927.66052     -1306.8497      4346.5948    
     42280   292.99041     -927.38798     -2857.4744      4353.6302    
     42290   319.02613     -928.10919     -3961.5906      4358.771     
     42300   330.13002     -928.42998     -4471.0134      4361.3628    
     42310   314.28619     -928.02436     -4436.265       4361.1282    
     42320   317.0839      -928.15554     -3915.5015      4358.1415    
     42330   308.78548     -927.99197     -2692.3618      4352.8059    
     42340   288.60347     -927.49647     -1026.3558      4345.9304    
     42350   304.76198     -928.00426      520.43013      4338.5604    
     42360   307.18118     -928.13042      2055.2965      4331.6804    
     42370   292.09706     -927.7681       3501.5456      4326.2256    
     42380   320.39681     -928.62001      4301.5165      4323.0215    
     42390   328.86505     -928.94832      4376.7269      4322.5083    
     42400   301.4148      -928.3005       3832.8654      4324.6839    
     42410   299.20873     -928.36196      2643.5999      4329.1597    
     42420   293.20669     -928.31998      1127.6972      4335.18      
     42430   268.34503     -927.73656     -438.03915      4341.7948    
     42440   276.65183     -928.05332     -1974.952       4348.0206    
     42450   289.30553     -928.47874     -3104.2967      4352.924     
     42460   285.90401     -928.45212     -3600.4305      4355.8306    
     42470   284.98406     -928.48841     -3627.038       4356.4536    
     42480   301.55586     -929.0096      -3284.8794      4354.8134    
     42490   303.19519     -929.11769     -2422.0486      4351.1808    
     42500   292.78102     -928.88699     -1192.6216      4346.1311    
     42510   289.42009     -928.84153      49.547214      4340.4437    
     42520   292.57095     -928.96482      1165.1435      4334.8994    
     42530   296.52487     -929.10229      2151.678       4330.1877    
     42540   277.71186     -928.60008      2932.4038      4326.8966    
     42550   253.03877     -927.92141      3271.7691      4325.4658    
     42560   265.54717     -928.2609       3051.1983      4326.0612    
     42570   281.16749     -928.6735       2482.5256      4328.5233    
     42580   284.93214     -928.75036      1711.6952      4332.4792    
     42590   286.43959     -928.76041      693.73719      4337.4265    
     42600   297.97342     -929.0462      -554.54791      4342.718     
     42610   298.83232     -929.03579     -1685.7758      4347.5913    
     42620   289.73896     -928.75329     -2502.3311      4351.3538    
     42630   286.65547     -928.64064     -3019.8653      4353.508     
     42640   288.83591     -928.67701     -3167.989       4353.757     
     42650   276.98336     -928.32559     -2774.9667      4352.0487    
     42660   271.71717     -928.15363     -1948.9024      4348.6584    
     42670   303.50048     -929.00447     -981.42352      4344.1162    
     42680   306.88795     -929.06513      180.03904      4339.054     
     42690   274.45441     -928.13243      1405.5223      4334.1982    
     42700   279.34621     -928.23031      2326.9236      4330.2848    
     42710   302.45377     -928.82635      2846.512       4327.8627    
     42720   285.35339     -928.30644      3041.7066      4327.2344    
     42730   277.86121     -928.0554       2780.9718      4328.4842    
     42740   300.89831     -928.64638      2100.5223      4331.4274    
     42750   309.55317     -928.83422      1217.8036      4335.6342    
     42760   306.27571     -928.69432      173.14774      4340.5436    
     42770   302.01986     -928.52917     -986.63786      4345.4983    
     42780   295.02814     -928.28688     -2044.635       4349.7843    
     42790   302.25582     -928.43904     -2820.5546      4352.7531    
     42800   288.04084     -927.99624     -3115.961       4353.9443    
     42810   275.95596     -927.61241     -3001.2065      4353.188     
     42820   299.75234     -928.21818     -2486.5452      4350.5813    
     42830   308.73608     -928.40561     -1432.8538      4346.4841    
     42840   295.38816     -927.97285     -118.62648      4341.5635    
     42850   309.94897     -928.31277      1011.699       4336.628     
     42860   314.58617     -928.37516      2011.7465      4332.3872    
     42870   295.15721     -927.77486      2853.5165      4329.4517    
     42880   310.08802     -928.13347      3136.7955      4328.3015    
     42890   326.45165     -928.53588      2910.4641      4329.095     
     42900   331.03841     -928.62656      2321.1223      4331.6795    
     42910   323.05671     -928.38619      1400.0582      4335.6738    
     42920   291.77316     -927.50734      239.40216      4340.4985    
     42930   287.79551     -927.38187     -1075.6157      4345.425     
     42940   311.52814     -928.0179      -2186.7787      4349.6474    
     42950   299.89807     -927.67088     -2752.491       4352.4924    
     42960   290.47535     -927.38773     -2922.1244      4353.6047    
     42970   308.33611     -927.86062     -2777.365       4352.8878    
     42980   316.64912     -928.06922     -2127.0407      4350.4636    
     42990   321.05524     -928.17508     -1090.0124      4346.7539    
     43000   329.14911     -928.39248     -48.966802      4342.4018    
     43010   316.95116     -928.05751      898.0017       4338.0639    
     43020   315.54891     -928.03488      1660.0802      4334.3242    
     43030   312.97705     -927.99332      2239.2749      4331.6528    
     43040   305.06186     -927.81752      2505.6521      4330.3913    
     43050   314.15999     -928.13265      2377.6065      4330.6869    
     43060   306.2457      -927.99577      1959.8535      4332.4548    
     43070   291.11728     -927.66982      1312.8577      4335.4288    
     43080   308.2413      -928.2511       448.8334       4339.1972    
     43090   306.75432     -928.33073     -448.23246      4343.2279    
     43100   289.57396     -927.97559     -1336.122       4346.9587    
     43110   305.82072     -928.55143     -2167.6487      4349.8332    
     43120   302.42154     -928.58769     -2593.6538      4351.3533    
     43130   283.12896     -928.17418     -2548.6894      4351.261     
     43140   287.10789     -928.39514     -2158.7629      4349.5868    
     43150   287.2335      -928.49679     -1449.2924      4346.5886    
     43160   285.43833     -928.53017     -572.05552      4342.7143    
     43170   291.37854     -928.76472      346.29625      4338.5153    
     43180   290.65434     -928.80269      1262.5882      4334.567     
     43190   289.21048     -928.81003      2043.7655      4331.433     
     43200   289.64287     -928.86299      2485.4967      4329.5813    
     43210   276.15093     -928.51964      2545.8353      4329.2781    
     43220   294.56902     -929.05617      2113.371       4330.5434    
     43230   291.4604      -928.99111      1494.3451      4333.1197    
     43240   253.9072      -927.95781      826.61216      4336.6247    
     43250   277.55841     -928.60728     -122.54033      4340.6224    
     43260   313.93987     -929.59544     -1108.5279      4344.5317    
     43270   289.67635     -928.89727     -1767.757       4347.7543    
     43280   278.88848     -928.57226     -2207.3423      4349.8682    
     43290   291.87922     -928.89999     -2464.9894      4350.5963    
     43300   270.60347     -928.26785     -2322.7567      4349.796     
     43310   271.56038     -928.24409     -1910.8294      4347.5535    
     43320   283.88702     -928.51748     -1147.5115      4344.1426    
     43330   276.46958     -928.22549     -62.008678      4340.0491    
     43340   292.47327     -928.5685       1017.961       4335.94      
     43350   306.70406     -928.84642      1928.7522      4332.4828    
     43360   289.17652     -928.24264      2601.469       4330.2413    
     43370   313.9365      -928.8183       2738.364       4329.608     
     43380   315.16955     -928.74433      2615.7515      4330.6829    
     43390   295.95873     -928.1221       2071.6721      4333.375     
     43400   322.89031     -928.79128      894.08134      4337.3292    
     43410   325.75924     -928.80184     -360.12522      4341.8396    
     43420   275.35837     -927.34898     -1265.002       4346.1433    
     43430   283.69535     -927.53097     -2147.3979      4349.6467    
     43440   308.70695     -928.17107     -2769.5977      4351.8073    
     43450   283.91746     -927.43496     -2726.4022      4352.2588    
     43460   295.85114     -927.72682     -2362.1535      4351.0078    
     43470   315.73159     -928.2427      -1662.1546      4348.2933    
     43480   300.35675     -927.78778     -649.00419      4344.5633    
     43490   315.49546     -928.18755      282.98504      4340.4361    
     43500   330.10542     -928.58173      1173.025       4336.5023    
     43510   302.96961     -927.82681      2063.0795      4333.3234    
     43520   317.7719      -928.24394      2468.5325      4331.4224    
     43530   336.33481     -928.7785       2461.5224      4331.0543    
     43540   305.79504     -927.9619       2205.3634      4332.2226    
     43550   309.09292     -928.08948      1466.3729      4334.75      
     43560   317.27792     -928.35584      534.50639      4338.1904    
     43570   282.65307     -927.42958     -233.03809      4341.9822    
     43580   286.00145     -927.54589     -1117.5282      4345.6237    
     43590   320.82972     -928.53291     -1975.9876      4348.5644    
     43600   292.25121     -927.76038     -2237.4039      4350.2983    
     43610   283.84732     -927.54576     -2215.5522      4350.6373    
     43620   313.79586     -928.39397     -2051.5132      4349.5888    
     43630   313.54945     -928.4085      -1473.0276      4347.2764    
     43640   303.95368     -928.16854     -620.51068      4344.0595    
     43650   314.38429     -928.48821      198.61015      4340.4591    
     43660   304.54014     -928.24774      1062.2663      4336.9982    
     43670   302.12737     -928.21368      1763.4342      4334.2066    
     43680   323.17642     -928.83931      2009.2116      4332.5025    
     43690   291.98626     -928.0206       2079.337       4332.0577    
     43700   280.38589     -927.74153      1779.5063      4332.9012    
     43710   310.16428     -928.60984      1154.8113      4334.8475    
     43720   298.34561     -928.32512      617.84312      4337.532     
     43730   273.37071     -927.66936      25.689828      4340.6098    
     43740   297.14011     -928.35931     -760.9686       4343.6991    
     43750   310.80611     -928.76882     -1286.616       4346.3323    
     43760   293.84374     -928.33052     -1510.9935      4348.1802    
     43770   315.47027     -928.97102     -1864.5697      4349.0708    
     43780   313.21065     -928.96272     -1963.1001      4348.805     
     43790   266.77374     -927.73143     -1562.5232      4347.3346    
     43800   277.60957     -928.08412     -1101.9666      4344.8849    
     43810   306.27438     -928.93591     -545.93976      4341.7501    
     43820   271.02728     -928.01395      371.25194      4338.3003    
     43830   272.84606     -928.11659      1151.7984      4335.0799    
     43840   303.84423     -929.03447      1698.3163      4332.5738    
     43850   288.27217     -928.67001      2162.9987      4331.1353    
     43860   287.53166     -928.72691      2172.1469      4331.0312    
     43870   304.11863     -929.28362      1779.8998      4332.2716    
     43880   277.71063     -928.65703      1331.9481      4334.6359    
     43890   275.62914     -928.70488      557.83017      4337.8273    
     43900   294.03122     -929.32579     -411.05391      4341.3708    
     43910   277.63724     -928.9797      -1216.6496      4344.6786    
     43920   268.20948     -928.81362     -1923.994       4347.2356    
     43930   276.88704     -929.14254     -2361.9345      4348.6012    
     43940   248.64223     -928.42843     -2201.3443      4348.517     
     43950   256.0454      -928.68236     -1831.9438      4347.0563    
     43960   287.65286     -929.59589     -1299.168       4344.4508    
     43970   262.79024     -928.9269      -383.48441      4341.0515    
     43980   263.31823     -928.94532      528.76419      4337.412     
     43990   298.1044      -929.89938      1198.083       4334.0919    
     44000   274.17213     -929.21227      1827.9504      4331.5252    
     44010   251.2518      -928.54303      2181.7939      4330.0916    
     44020   279.80678     -929.28425      2098.2841      4330.0023    
     44030   284.38314     -929.3385       1894.7375      4331.2288    
     44040   269.09076     -928.83064      1456.8067      4333.6404    
     44050   280.6315      -929.05239      599.06517      4336.9546    
     44060   281.19114     -928.94887     -290.35854      4340.6607    
     44070   279.18994     -928.76442     -1027.3045      4344.2099    
     44080   292.07154     -928.98526     -1695.4946      4347.13      
     44090   286.89499     -928.70554     -2177.7201      4349.0033    
     44100   269.48353     -928.09977     -2315.3365      4349.5291    
     44110   270.19006     -928.00734     -2029.4441      4348.6204    
     44120   283.62512     -928.27213     -1380.1861      4346.4521    
     44130   298.67488     -928.58934     -586.83636      4343.4213    
     44140   319           -929.06773      170.78168      4340.0167    
     44150   308.43084     -928.70793      1035.5343      4336.7265    
     44160   295.30191     -928.29406      1732.0499      4334.0778    
     44170   311.37588     -928.70003      1913.3392      4332.487     
     44180   304.28897     -928.47153      1857.1321      4332.0869    
     44190   278.12293     -927.71943      1687.8042      4332.8522    
     44200   285.90819     -927.90738      1214.1943      4334.6677    
     44210   294.5487      -928.11192      602.03135      4337.2516    
     44220   286.96748     -927.8616       9.6018562      4340.2321    
     44230   306.84438     -928.37121     -619.44297      4343.233     
     44240   308.63718     -928.37767     -1064.9224      4345.8717    
     44250   303.17008     -928.18797     -1363.015       4347.8626    
     44260   326.52224     -928.80504     -1670.3265      4349.0029    
     44270   316.04549     -928.49345     -1708.3256      4349.1134    
     44280   300.06218     -928.03982     -1556.2139      4348.1601    
     44290   316.63086     -928.49547     -1322.6165      4346.229     
     44300   303.75491     -928.13947     -769.78973      4343.4799    
     44310   267.46392     -927.12973      53.624215      4340.2589    
     44320   301.12502     -928.054        706.47284      4337.055     
     44330   305.77259     -928.16529      1413.1861      4334.2952    
     44340   280.05496     -927.43168      2024.7062      4332.4166    
     44350   319.79262     -928.51435      2066.7379      4331.7743    
     44360   329.94734     -928.78013      1902.1393      4332.4235    
     44370   298.9198      -927.9162       1620.9551      4334.272     
     44380   303.18997     -928.03777      942.57372      4337.1316    
     44390   308.08074     -928.17663      112.61954      4340.5972    
     44400   297.91157     -927.89748     -612.52348      4344.165     
     44410   318.39038     -928.4728      -1355.4462      4347.3679    
     44420   313.79975     -928.36033     -1924.4504      4349.7456    
     44430   296.06906     -927.89108     -2217.7721      4350.9382    
     44440   323.30428     -928.68157     -2278.7984      4350.7489    
     44450   318.80147     -928.60975     -1938.6303      4349.1445    
     44460   280.3307      -927.60404     -1331.1111      4346.3278    
     44470   286.46391     -927.83701     -690.57121      4342.6638    
     44480   286.8241      -927.90828      241.56365      4338.5725    
     44490   272.61381     -927.56754      1322.5651      4334.6317    
     44500   296.36165     -928.2766       2044.6567      4331.4912    
     44510   317.72232     -928.93015      2458.0677      4329.6092    
     44520   293.905       -928.33984      2772.1557      4329.2644    
     44530   310.04116     -928.87002      2534.6559      4330.6316    
     44540   321.84281     -929.30031      1757.929       4333.5758    
     44550   287.08455     -928.44492      717.32977      4337.6364    
     44560   276.08563     -928.2386      -482.7294       4342.1708    
     44570   288.9872      -928.68725     -1585.5056      4346.4393    
     44580   285.91665     -928.68627     -2363.4353      4349.7549    
     44590   280.47738     -928.61162     -2841.8541      4351.614     
     44600   282.44891     -928.73678     -2921.7522      4351.7083    
     44610   270.43601     -928.46402     -2427.2862      4349.9894    
     44620   269.00315     -928.47061     -1638.3745      4346.745     
     44630   281.41145     -928.84787     -688.8733       4342.4629    
     44640   283.34744     -928.9206       445.19148      4337.7433    
     44650   293.27218     -929.20564      1512.0162      4333.2839    
     44660   295.68063     -929.27629      2326.5328      4329.7464    
     44670   284.36179     -928.96325      2791.0481      4327.6382    
     44680   275.12238     -928.70256      2828.7493      4327.2518    
     44690   273.64991     -928.64874      2420.3187      4328.618     
     44700   258.67211     -928.2042       1762.1254      4331.5055    
     44710   270.28692     -928.47749      852.46601      4335.5103    
     44720   293.41846     -929.04204     -109.74506      4340.0829    
     44730   298.09076     -929.07231     -983.17439      4344.6289    
     44740   292.67424     -928.80908     -1780.3218      4348.5948    
     44750   296.51311     -928.79064     -2504.4271      4351.469     
     44760   301.8478      -928.80213     -2881.978       4352.7984    
     44770   293.23075     -928.42427     -2733.9489      4352.3434    
     44780   289.59692     -928.18735     -2279.2274      4350.1735    
     44790   292.45351     -928.13109     -1558.9948      4346.5666    
     44800   301.96958     -928.2631      -469.1027       4341.9806    
     44810   300.84532     -928.10864      830.58961      4337.0924    
     44820   305.19645     -928.12307      1913.5233      4332.6942    
     44830   303.96274     -928.00012      2640.5405      4329.4619    
     44840   290.33748     -927.55275      2998.439       4327.8549    
     44850   302.04534     -927.82404      2931.5576      4328.1012    
     44860   303.94174     -927.83364      2550.7798      4330.1798    
     44870   314.92417     -928.10853      1731.4803      4333.8582    
     44880   328.25519     -928.4601       590.78696      4338.6441    
     44890   322.48615     -928.29475     -538.19195      4343.8481    
     44900   314.65474     -928.08124     -1582.5073      4348.7641    
     44910   325.87988     -928.40658     -2564.5112      4352.7231    
     44920   303.16953     -927.79795     -3140.845       4355.1133    
     44930   292.07779     -927.5144      -3269.9807      4355.5552    
     44940   323.84057     -928.42622     -3024.1892      4353.9474    
     44950   320.06509     -928.3636      -2254.5337      4350.445     
     44960   289.7258      -927.567       -1159.3819      4345.5166    
     44970   292.88079     -927.69396     -20.631472      4339.8328    
     44980   293.29877     -927.73588      1290.7219      4334.1192    
     44990   286.87787     -927.57813      2608.4463      4329.1916    
     45000   303.30772     -928.05144      3465.93        4325.8508    
     45010   311.18859     -928.29216      3841.9332      4324.6414    
     45020   320.0569      -928.57382      3741.3902      4325.8131    
     45030   327.70121     -928.84144      2983.7723      4329.3113    
     45040   308.09331     -928.36533      1634.1422      4334.6894    
     45050   306.81875     -928.40093     -111.38178      4341.1276    
     45060   307.49606     -928.49145     -1751.0084      4347.5635    
     45070   283.41153     -927.88978     -2950.1064      4352.9756    
     45080   280.05526     -927.85554     -3808.1151      4356.5813    
     45090   298.51293     -928.42778     -4188.1098      4357.824     
     45100   301.00877     -928.5642      -3840.4147      4356.4576    
     45110   293.3846      -928.42582     -2880.6621      4352.6792    
     45120   283.23966     -928.21257     -1560.7855      4347.0748    
     45130   287.58921     -928.39266     -97.521233      4340.461     
     45140   284.68835     -928.35922      1512.8949      4333.7621    
     45150   285.1366      -928.40812      2936.9867      4327.9706    
     45160   297.27746     -928.77714      3871.2985      4323.9661    
     45170   315.5991      -929.32872      4162.2504      4322.3303    
     45180   288.61953     -928.63496      3961.9329      4323.2706    
     45190   273.49109     -928.27134      3132.0541      4326.6728    
     45200   290.77888     -928.80529      1766.0228      4332.0464    
     45210   280.61198     -928.5698       262.77351      4338.5787    
     45220   277.01706     -928.50607     -1279.1171      4345.3388    
     45230   292.51004     -928.9653      -2697.9935      4351.3601    
     45240   280.72844     -928.66486     -3663.1258      4355.7517    
     45250   275.57602     -928.5483      -4167.7865      4357.8799    
     45260   292.18258     -929.04015     -4156.0884      4357.4043    
     45270   286.34833     -928.91391     -3387.9344      4354.3305    
     45280   277.62341     -928.70703     -2146.055       4349.1153    
     45290   280.45973     -928.81266     -692.75518      4342.5237    
     45300   275.05225     -928.67457      952.71956      4335.4716    
     45310   276.92542     -928.72108      2523.6253      4328.9787    
     45320   294.21142     -929.18286      3671.5446      4324.0119    
     45330   285.88863     -928.92743      4290.9891      4321.2906    
     45340   277.6143      -928.67156      4239.2966      4321.2045    
     45350   275.68216     -928.58439      3615.7765      4323.7468    
     45360   268.31009     -928.33204      2560.7906      4328.5613    
     45370   277.48729     -928.51833      1079.9514      4335.0104    
     45380   292.9351      -928.85171     -581.77937      4342.1959    
     45390   301.29818     -928.96889     -2132.4248      4349.0916    
     45400   299.36479     -928.79348     -3325.7563      4354.7221    
     45410   294.43996     -928.53791     -4049.7321      4358.3182    
     45420   300.60305     -928.59655     -4289.6234      4359.397     
     45430   302.47996     -928.54472     -3949.5912      4357.7898    
     45440   293.2765      -928.19645     -3034.176       4353.696     
     45450   296.0749      -928.18644     -1699.162       4347.6763    
     45460   294.25844     -928.04531     -70.555692      4340.5649    
     45470   293.64338     -927.93402      1549.5177      4333.3709    
     45480   300.60008     -928.03025      2937.6339      4327.099     
     45490   294.71323     -927.77264      4102.1853      4322.6252    
     45500   299.04253     -927.80804      4745.0836      4320.6662    
     45510   316.52866     -928.22025      4644.9895      4321.627     
     45520   319.62652     -928.24966      3834.5879      4325.4751    
     45530   323.188       -928.30939      2339.4224      4331.7337    
     45540   325.70637     -928.35037      456.46046      4339.5109    
     45550   316.2118      -928.06396     -1468.9978      4347.6555    
     45560   305.33794     -927.74104     -3184.9069      4354.9636    
     45570   312.97519     -927.93626     -4487.5656      4360.3399    
     45580   304.39782     -927.69089     -5108.5816      4362.9458    
     45590   296.94327     -927.4889      -4992.9081      4362.3594    
     45600   308.3298      -927.81993     -4146.0098      4358.6308    
     45610   308.73481     -927.85181     -2628.0154      4352.282     
     45620   304.91025     -927.76594     -734.78394      4344.2528    
     45630   317.21739     -928.12386      1214.5016      4335.7212    
     45640   325.83173     -928.38259      3116.6857      4327.9102    
     45650   309.76705     -927.96527      4674.8914      4321.9971    
     45660   307.7662      -927.95341      5306.3544      4318.9263    
     45670   310.80204     -928.10088      5046.9801      4319.1105    
     45680   309.82987     -928.15743      4165.0926      4322.427     
     45690   305.74813     -928.14267      2745.2754      4328.3597    
     45700   293.17476     -927.89458      957.94012      4336.0594    
     45710   297.93241     -928.12182     -964.21038      4344.4351    
     45720   308.25207     -928.50566     -2738.9648      4352.292     
     45730   286.0125      -927.98345     -4079.0543      4358.5105    
     45740   288.43919     -928.14449     -5007.2415      4362.2113    
     45750   303.07781     -928.65551     -5301.25        4362.7879    
     45760   291.95599     -928.46153     -4681.3641      4360.0451    
     45770   280.66963     -928.25846     -3311.3596      4354.3494    
     45780   294.00433     -928.72747     -1513.492       4346.5443    
     45790   302.67607     -929.05548      522.08564      4337.7557    
     45800   290.33882     -928.78294      2581.5926      4329.2558    
     45810   288.75306     -928.79256      4220.0514      4322.3115    
     45820   288.1601      -928.82137      5164.0728      4317.9352    
     45830   283.76856     -928.7418       5324.5905      4316.7197    
     45840   282.12794     -928.73752      4748.5864      4318.788     
     45850   275.35086     -928.58365      3509.2848      4323.8143    
     45860   272.71517     -928.53045      1745.9353      4331.0635    
     45870   261.45971     -928.21497     -187.93936      4339.4758    
     45880   258.29982     -928.09806     -2036.2174      4347.858     
     45890   287.82397     -928.86736     -3617.006       4355.0442    
     45900   307.2923      -929.35096     -4596.9942      4360.0311    
     45910   299.83664     -929.09928     -4888.5166      4362.1741    
     45920   307.62298     -929.28852     -4695.3996      4361.2471    
     45930   301.86005     -929.11567     -3857.9059      4357.364     
     45940   279.41907     -928.48506     -2449.2627      4351.0403    
     45950   279.92588     -928.48447     -845.93462      4343.1404    
     45960   275.01773     -928.31842      918.20758      4334.6756    
     45970   262.30943     -927.91961      2760.6084      4326.7517    
     45980   281.35138     -928.38982      4270.7828      4320.4992    
     45990   292.55013     -928.63876      5278.2944      4316.8566    
     46000   289.34221     -928.49887      5615.1745      4316.4563    
     46010   303.73894     -928.8626       4969.603       4319.5132    
     46020   307.68732     -928.94739      3489.6554      4325.6686    
     46030   293.60272     -928.53549      1495.3145      4334.0524    
     46040   292.83552     -928.48559     -819.59829      4343.4476    
     46050   284.82991     -928.22005     -3009.9824      4352.4266    
     46060   270.96652     -927.78011     -4605.2922      4359.6153    
     46070   296.88286     -928.44072     -5526.6879      4363.9718    
     46080   307.17204     -928.6723      -5593.2724      4364.8901    
     46090   306.24271     -928.61017     -4933.0835      4362.2893    
     46100   298.61119     -928.37368     -3601.3478      4356.5699    
     46110   297.8293      -928.32783     -1820.0377      4348.5563    
     46120   308.29483     -928.58625      186.85386      4339.362     
     46130   300.7717      -928.33625      2252.5687      4330.2453    
     46140   289.70063     -927.98147      4014.87        4322.4819    
     46150   290.88778     -927.96392      5278.4269      4317.164     
     46160   289.26597     -927.8704       5908.4554      4315.0805    
     46170   297.82801     -928.06758      5614.7868      4316.6256    
     46180   311.84645     -928.42312      4456.1307      4321.6522    
     46190   313.20744     -928.43242      2720.4478      4329.4943    
     46200   313.57602     -928.41288      491.31191      4339.1037    
     46210   321.69873     -928.60289     -1959.4983      4349.1115    
     46220   298.74308     -927.9252      -4057.5496      4357.9988    
     46230   284.9943      -927.50197     -5577.6602      4364.4203    
     46240   296.48317     -927.7813      -6352.1034      4367.3793    
     46250   284.61467     -927.41777     -6012.734       4366.3697    
     46260   301.40311     -927.85392     -4757.8507      4361.568     
     46270   336.85281     -928.80337     -2850.3152      4353.7453    
     46280   322.62577     -928.37157     -466.81811      4344.1017    
     46290   315.97551     -928.14743      1852.8391      4334.1132    
     46300   344.68756     -928.9031       3748.6359      4325.2186    
     46310   314.1529      -928.02561      5251.1788      4318.6099    
     46320   280.43188     -927.07451      5980.3393      4315.2053    
     46330   304.34464     -927.7331       5734.2467      4315.4606    
     46340   301.40909     -927.65222      4875.1164      4319.275     
     46350   296.53293     -927.52148      3352.9638      4326.1462    
     46360   316.74042     -928.08091      1245.603       4335.1637    
     46370   312.43868     -927.95054     -951.26787      4345.0604    
     46380   299.83605     -927.5828      -2993.971       4354.4675    
     46390   304.54399     -927.69009     -4705.4955      4362.0847    
     46400   323.53263     -928.2         -5838.0367      4366.8059    
     46410   331.87782     -928.43903     -6074.2991      4367.8915    
     46420   322.20401     -928.21155     -5401.7342      4365.1583    
     46430   309.33956     -927.91797     -4021.1936      4359.0021    
     46440   320.99754     -928.31809     -2174.2947      4350.2761    
     46450   314.3052      -928.21379      95.764109      4340.1479    
     46460   292.85851     -927.69204      2501.3726      4330.0341    
     46470   289.09128     -927.64797      4499.5585      4321.4145    
     46480   301.8752      -928.06404      5746.552       4315.5196    
     46490   300.53279     -928.10023      6271.7441      4313.1379    
     46500   296.93142     -928.08855      5988.3171      4314.6127    
     46510   296.49208     -928.17578      4814.1987      4319.7999    
     46520   293.29453     -928.18505      2889.41        4328.0225    
     46530   299.06896     -928.43221      493.0417       4338.132     
     46540   298.44476     -928.48527     -1913.8555      4348.6712    
     46550   293.68166     -928.4074      -4024.3062      4358.1318    
     46560   297.05268     -928.54842     -5610.1556      4365.1603    
     46570   301.96444     -928.73886     -6444.366       4368.7191    
     46580   300.82876     -928.77661     -6393.3292      4368.2408    
     46590   297.02076     -928.75436     -5446.9988      4363.7233    
     46600   286.48837     -928.54666     -3684.2814      4355.7448    
     46610   274.82387     -928.29099     -1373.8351      4345.4009    
     46620   271.70239     -928.24281      1184.7577      4334.1357    
     46630   284.96102     -928.62078      3634.3552      4323.5403    
     46640   289.22036     -928.73285      5683.8498      4315.1329    
     46650   278.16977     -928.41616      6972.1182      4310.1759    
     46660   292.78645     -928.82147      7123.0272      4309.4646    
     46670   294.18387     -928.87239      6290.9309      4313.141     
     46680   276.80628     -928.40657      4594.3425      4320.7491    
     46690   288.56435     -928.73754      2111.1506      4331.2925    
     46700   295.95968     -928.92051     -684.76434      4343.2869    
     46710   289.45692     -928.69095     -3393.0607      4355.0062    
     46720   299.10326     -928.89067     -5740.7943      4364.728     
     46730   286.56991     -928.4686      -7219.8338      4370.9416    
     46740   264.07231     -927.77691     -7606.8029      4372.6578    
     46750   278.98423     -928.12536     -6927.5332      4369.5749    
     46760   294.36217     -928.47206     -5081.1899      4362.0996    
     46770   294.1209      -928.36312     -2388.7591      4351.3751    
     46780   315.38907     -928.82034      496.34295      4339.0682    
     46790   322.46885     -928.85505      3323.1225      4326.9893    
     46800   294.38182     -927.91203      5798.0604      4316.8985    
     46810   314.93018     -928.33211      7215.7168      4310.2994    
     46820   321.26464     -928.37796      7539.5812      4308.0874    
     46830   281.70754     -927.19214      7000.8763      4310.5129    
     46840   293.18577     -927.45065      5440.4072      4317.286     
     46850   326.11635     -928.30549      3052.9853      4327.5131    
     46860   310.32436     -927.8093       285.53684      4339.7824    
     46870   296.23132     -927.35734     -2577.3182      4352.3944    
     46880   320.4412      -927.96013     -5145.0243      4363.5476    
     46890   317.93556     -927.82899     -6843.7017      4371.6011    
     46900   308.72252     -927.53857     -7642.6845      4375.4105    
     46910   323.71677     -927.95277     -7508.7455      4374.4066    
     46920   324.37925     -928.00037     -6172.7292      4368.6482    
     46930   320.80381     -927.94927     -3948.5395      4358.9423    
     46940   322.95703     -928.0571      -1226.4593      4346.675     
     46950   318.76487     -927.97638      1749.787       4333.5581    
     46960   309.35034     -927.7338       4625.2902      4321.4484    
     46970   303.41637     -927.57959      6868.7072      4312.1151    
     46980   297.71521     -927.43706      8133.4231      4306.9436    
     46990   316.08428     -927.98541      8101.7011      4306.7224    
     47000   328.00061     -928.38649      6892.3455      4311.4894    
     47010   301.25121     -927.73123      4790.5593      4320.5793    
     47020   293.67171     -927.59536      1917.3565      4332.758     
     47030   325.25014     -928.52562     -1374.8308      4346.2891    
     47040   307.73696     -928.07315     -4255.2         4359.1535    
     47050   286.82701     -927.51026     -6477.9187      4369.501     
     47060   310.4604      -928.1861      -7920.5827      4375.8617    
     47070   316.70889     -928.40455     -8200.4515      4377.2712    
     47080   297.64935     -927.94561     -7310.4579      4373.4966    
     47090   316.74043     -928.56393     -5600.7375      4365.0498    
     47100   311.49221     -928.50925     -2946.8249      4353.0213    
     47110   283.38345     -927.79488      305.59709      4339.0789    
     47120   287.34425     -927.93286      3447.6742      4325.2406    
     47130   296.84021     -928.19806      6191.211       4313.4645    
     47140   289.18104     -927.97928      8199.8371      4305.4408    
     47150   299.04331     -928.26218      9004.0186      4302.3947    
     47160   306.57381     -928.50796      8529.7936      4304.8529    
     47170   311.16598     -928.69823      6727.7072      4312.578     
     47180   315.53531     -928.89051      3810.3559      4324.5383    
     47190   300.45104     -928.52718      423.07331      4339.0133    
     47200   275.66739     -927.85726     -2947.5148      4353.9299    
     47210   293.98703     -928.34945     -6157.0749      4367.1429    
     47220   309.42177     -928.7525      -8538.2406      4376.5956    
     47230   278.48135     -927.88562     -9467.052       4380.7343    
     47240   267.66758     -927.60123     -9045.3731      4378.896     
     47250   289.4284      -928.23694     -7317.2958      4371.3163    
     47260   289.12591     -928.2564      -4333.3184      4359.0969    
     47270   295.08931     -928.42496     -749.15419      4344.116     
     47280   320.04592     -929.08755      2825.6159      4328.6259    
     47290   307.99238     -928.70093      6153.1069      4314.8675    
     47300   292.39628     -928.21298      8606.56        4304.8697    
     47310   315.32357     -928.81642      9553.5129      4300.1009    
     47320   294.57923     -928.24207      9240.0624      4301.1677    
     47330   281.41132     -927.90644      7624.1349      4307.9029    
     47340   303.40026     -928.55122      4872.509       4319.3705    
     47350   295.69432     -928.35335      1519.0084      4333.9446    
     47360   283.87324     -928.00759     -2132.0868      4349.5688    
     47370   304.98871     -928.54168     -5596.8752      4363.9553    
     47380   290.47601     -928.07235     -8002.3879      4374.915     
     47390   274.52373     -927.575       -9185.7567      4380.8684    
     47400   308.8102      -928.49857     -9306.6307      4381.0075    
     47410   302.39699     -928.32357     -8018.7665      4375.2653    
     47420   274.06244     -927.55726     -5426.4283      4364.4768    
     47430   298.84674     -928.25117     -2178.349       4350.2918    
     47440   327.84925     -929.03441      1366.2278      4334.7862    
     47450   315.82782     -928.65995      4897.9203      4320.1925    
     47460   315.24121     -928.5998       7697.1234      4308.6625    
     47470   309.37772     -928.40887      9301.6656      4301.8754    
     47480   296.00266     -928.03994      9489.2534      4300.7774    
     47490   294.62396     -928.0339       8258.3895      4305.4715    
     47500   289.25581     -927.9289       5881.6659      4315.2301    
     47510   291.37954     -928.02022      2613.0273      4328.6186    
     47520   287.3328      -927.90792     -929.29582      4343.6516    
     47530   284.56732     -927.79444     -4176.3517      4358.1307    
     47540   309.38831     -928.42626     -6781.0577      4369.9956    
     47550   315.03334     -928.53385     -8377.6884      4377.5825    
     47560   287.75955     -927.75582     -8738.2508      4379.8716    
     47570   300.81386     -928.12601     -8008.6938      4376.6326    
     47580   331.3211      -929.00294     -6234.7512      4368.3673    
     47590   312.47573     -928.5212      -3487.3971      4356.2589    
     47600   290.61057     -927.94253     -309.39139      4342.0724    
     47610   293.44651     -928.01973      2826.5808      4327.8178    
     47620   294.33407     -928.01659      5679.5163      4315.4463    
     47630   296.53358     -928.04353      7799.6355      4306.6705    
     47640   294.35339     -927.96247      8846.1966      4302.7303    
     47650   297.24948     -928.0484       8607.6004      4304.2073    
     47660   310.40228     -928.44318      7088.7079      4310.9239    
     47670   323.7736      -928.85738      4485.8737      4321.9409    
     47680   315.76332     -928.67442      1254.4511      4335.6677    
     47690   305.27092     -928.40431     -2177.7149      4350.1023    
     47700   287.62061     -927.91176     -5281.4895      4363.0996    
     47710   274.84548     -927.54002     -7515.21        4372.7118    
     47720   285.85339     -927.83365     -8647.9479      4377.5307    
     47730   293.24683     -928.04759     -8507.8396      4376.8733    
     47740   283.54937     -927.8065      -7050.6607      4370.8915    
     47750   294.98307     -928.15389     -4580.2796      4360.5751    
     47760   325.39571     -929.01385     -1520.5557      4347.5469    
     47770   320.3958      -928.87439      1774.0107      4333.7737    
     47780   297.10365     -928.21279      4748.3275      4321.3025    
     47790   300.95922     -928.29967      6818.8203      4311.9163    
     47800   307.01483     -928.46096      7892.1657      4306.8247    
     47810   290.71291     -928.02614      7962.5338      4306.614     
     47820   290.29929     -928.05355      6814.5623      4311.2478    
     47830   304.65501     -928.50026      4699.4587      4319.9859    
     47840   299.57889     -928.40219      2123.3578      4331.5198    
     47850   303.80823     -928.54764     -756.74494      4344.2334    
     47860   307.30382     -928.65649     -3643.4786      4356.3259    
     47870   286.76971     -928.0897      -6006.9373      4366.0036    
     47880   266.77646     -927.53655     -7390.4786      4371.8103    
     47890   280.0298      -927.91515     -7627.8531      4372.918     
     47900   290.13785     -928.21792     -6747.9366      4369.2449    
     47910   297.29233     -928.44577     -4974.1076      4361.4246    
     47920   303.21456     -928.63478     -2415.2471      4350.6639    
     47930   292.75962     -928.3498       648.88558      4338.6303    
     47940   301.02067     -928.56132      3447.9046      4327.2266    
     47950   327.49876     -929.27051      5463.6905      4318.1457    
     47960   323.86036     -929.1615       6658.8621      4312.5733    
     47970   291.87857     -928.29174      6926.4443      4311.1608    
     47980   286.89189     -928.18976      6057.7875      4313.9795    
     47990   285.89581     -928.20328      4348.1748      4320.446     
     48000   270.72883     -927.81268      2163.122       4329.4766    
     48010   264.62934     -927.64801     -165.09588      4339.7035    
     48020   285.97066     -928.21515     -2330.8758      4349.6742    
     48030   308.76289     -928.80146     -4033.6427      4358.0495    
     48040   313.32201     -928.88077     -5231.3555      4363.7763    
     48050   299.71003     -928.46712     -5816.8798      4366.1433    
     48060   299.54578     -928.44029     -5622.0509      4364.8469    
     48070   297.68946     -928.3733      -4538.0389      4360.0902    
     48080   288.68302     -928.10526     -2796.2801      4352.6208    
     48090   294.83819     -928.24382     -769.38167      4343.5777    
     48100   306.68523     -928.52128      1337.3653      4334.2575    
     48110   294.49351     -928.11654      3407.5261      4325.972     
     48120   300.0429      -928.19737      4979.065       4319.9493    
     48130   325.70622     -928.83764      5598.1123      4317.0763    
     48140   306.91146     -928.25853      5385.4344      4317.6736    
     48150   286.97616     -927.6631       4435.1241      4321.5477    
     48160   297.41962     -927.9078       2883.6609      4328.0653    
     48170   303.51603     -928.01762      1043.4839      4336.2453    
     48180   306.55792     -928.03026     -877.91473      4344.9316    
     48190   311.50446     -928.0855      -2709.111       4352.9244    
     48200   315.12523     -928.10128     -4132.4736      4359.1019    
     48210   327.06136     -928.35698     -4901.8375      4362.6078    
     48220   314.44412     -927.94931     -4884.6049      4363.0115    
     48230   293.66617     -927.3318      -4309.3178      4360.3702    
     48240   308.37989     -927.7045      -3316.4631      4355.1016    
     48250   308.74498     -927.6744      -1702.0692      4347.9049    
     48260   303.25652     -927.47592      339.13971      4339.8268    
     48270   331.51623     -928.20654      2175.8756      4332.124     
     48280   338.11128     -928.34085      3587.0975      4325.9161    
     48290   301.97141     -927.30608      4588.7426      4322.0409    
     48300   313.69656     -927.61513      4882.6251      4321.0444    
     48310   336.16805     -928.23804      4452.3276      4323.051     
     48320   319.78764     -927.80429      3370.8749      4327.7471    
     48330   314.37173     -927.6899       1696.496       4334.4244    
     48340   321.08064     -927.92005     -168.0983       4342.0381    
     48350   318.9698      -927.91451     -1897.4037      4349.4306    
     48360   321.44875     -928.05507     -3379.7148      4355.5249    
     48370   302.04688     -927.60769     -4335.0454      4359.426     
     48380   293.31346     -927.47341     -4668.5997      4360.5699    
     48390   296.08089     -927.67505     -4295.7608      4358.8005    
     48400   298.44005     -927.87814     -3229.4491      4354.4097    
     48410   308.13108     -928.29237     -1755.5726      4348.107     
     48420   311.44005     -928.53456     -150.12637      4340.8417    
     48430   291.58267     -928.12029      1556.5026      4333.6382    
     48440   297.74421     -928.41003      2993.6705      4327.5308    
     48450   307.69221     -928.79768      4021.2806      4323.3787    
     48460   298.18176     -928.63854      4483.6586      4321.7665    
     48470   291.77252     -928.55614      4183.9536      4322.9198    
     48480   301.56069     -928.91487      3167.2307      4326.611     
     48490   302.28177     -929.01389      1733.6599      4332.1904    
     48500   275.83237     -928.33983      221.66641      4338.7634    
     48510   260.10448     -927.93559     -1334.4633      4345.3759    
     48520   274.87458     -928.35367     -2761.3413      4351.0622    
     48530   285.33687     -928.63755     -3611.9542      4354.9648    
     48540   284.91693     -928.6143      -3768.0671      4356.5806    
     48550   297.73797     -928.9592      -3501.4739      4355.8292    
     48560   294.71032     -928.86537     -2858.2506      4352.9171    
     48570   282.71363     -928.52049     -1845.7853      4348.2865    
     48580   301.66974     -929.02868     -566.15442      4342.5987    
     48590   297.63522     -928.8914       858.9284       4336.6682    
     48600   272.49383     -928.16117      2024.717       4331.3646    
     48610   295.34655     -928.75662      2684.1984      4327.382     
     48620   281.96898     -928.33824      3285.6972      4325.1336    
     48630   261.93584     -927.73252      3555.1955      4324.9449    
     48640   304.48174     -928.85536      3078.3586      4326.9269    
     48650   315.51507     -929.09549      2216.6462      4330.7788    
     48660   277.78596     -927.9877       1169.3986      4335.9556    
     48670   297.65627     -928.47535     -234.87089      4341.7784    
     48680   317.97984     -928.96207     -1603.8189      4347.3866    
     48690   286.9558      -928.02582     -2594.6261      4351.9443    
     48700   295.95004     -928.20493     -3318.5118      4354.8307    
     48710   313.97842     -928.63293     -3534.5262      4355.6243    
     48720   301.80147     -928.2309      -3090.4049      4354.2272    
     48730   304.27783     -928.24526     -2297.7545      4350.9305    
     48740   291.61962     -927.84024     -1234.6942      4346.2595    
     48750   278.42015     -927.4162      -46.457507      4340.8947    
     48760   312.73876     -928.30151      1062.7598      4335.5775    
     48770   320.22905     -928.43798      2165.4149      4331.0037    
     48780   289.54525     -927.52459      3064.5641      4327.8364    
     48790   312.91764     -928.12034      3294.3328      4326.5825    
     48800   319.25395     -928.24867      3117.2844      4327.3766    
     48810   298.22883     -927.63084      2644.5928      4330.0907    
     48820   320.4323      -928.22079      1687.5542      4334.3996    
     48830   336.47418     -928.64689      477.63805      4339.707     
     48840   313.94374     -928.01476     -697.07539      4345.2667    
     48850   320.57959     -928.20235     -1963.6883      4350.3299    
     48860   324.41349     -928.32207     -3034.052       4354.1219    
     48870   302.68045     -927.7444      -3569.5129      4355.9978    
     48880   286.24449     -927.3193      -3520.4004      4355.6421    
     48890   287.55849     -927.38542     -3014.3321      4353.1036    
     48900   300.42513     -927.77048     -2069.5089      4348.7275    
     48910   298.1005      -927.73142     -598.40433      4343.1411    
     48920   297.49716     -927.73497      991.66273      4337.2605    
     48930   327.79868     -928.6003       2238.437       4332.0565    
     48940   329.36292     -928.68992      3137.5271      4328.2964    
     48950   304.68322     -928.08144      3618.5281      4326.5161    
     48960   314.20274     -928.4641       3398.6334      4326.9724    
     48970   313.81422     -928.63211      2635.2261      4329.5157    
     48980   281.90612     -927.9695       1580.0042      4333.6685    
     48990   280.90777     -928.17598      248.33272      4338.7602    
     49000   299.21796     -928.92476     -1099.3238      4343.966     
     49010   276.88086     -928.50991     -2071.5259      4348.4638    
     49020   272.83911     -928.54629     -2751.3934      4351.6395    
     49030   289.43515     -929.12077     -3094.0365      4353.0779    
     49040   282.93718     -929.02808     -3006.9903      4352.5844    
     49050   275.63797     -928.89058     -2567.6744      4350.2271    
     49060   275.14359     -928.92316     -1744.0882      4346.3047    
     49070   262.51652     -928.59777     -522.51788      4341.3556    
     49080   265.85715     -928.69328      741.91345      4336.1372    
     49090   285.01598     -929.20985      1799.5075      4331.4285    
     49100   281.23186     -929.07707      2698.2289      4327.8867    
     49110   282.54907     -929.08024      3203.4362      4326.0424    
     49120   285.22682     -929.11556      3172.867       4326.1847    
     49130   282.98615     -929.01017      2641.074       4328.2794    
     49140   275.43031     -928.74956      1728.9057      4331.9896    
     49150   277.5461      -928.74547      564.31619      4336.7422    
     49160   281.36924     -928.77266     -543.13995      4341.8234    
     49170   280.05734     -928.64428     -1552.3111      4346.5385    
     49180   283.54696     -928.63939     -2455.0711      4350.2538    
     49190   284.77005     -928.56521     -2957.1493      4352.424     
     49200   290.73703     -928.62184     -2926.9975      4352.749     
     49210   296.49537     -928.67417     -2511.4646      4351.2542    
     49220   311.18374     -928.97974     -1865.2061      4348.2076    
     49230   300.26641     -928.5828      -862.41626      4344.041     
     49240   282.47135     -928.00458      248.09138      4339.3804    
     49250   283.78975     -927.95599      1214.2376      4334.9121    
     49260   285.31148     -927.90834      2037.7182      4331.238     
     49270   286.4836      -927.84986      2648.8886      4328.8596    
     49280   307.90652     -928.35587      2867.7291      4328.1345    
     49290   308.59013     -928.29338      2724.7233      4329.1899    
     49300   307.29558     -928.19061      2135.3746      4331.9199    
     49310   328.02001     -928.71013      1244.6403      4335.9561    
     49320   310.44693     -928.17798      376.70771      4340.7583    
     49330   304.44341     -927.97645     -754.69601      4345.7603    
     49340   337.42642     -928.86261     -2050.1914      4350.2547    
     49350   317.51855     -928.2944      -2847.5941      4353.4669    
     49360   277.95659     -927.19055     -3172.496       4354.8956    
     49370   304.81002     -927.93262     -3280.2246      4354.3277    
     49380   303.15597     -927.88395     -2757.4801      4351.7357    
     49390   279.44995     -927.223       -1679.0826      4347.4614    
     49400   306.83489     -927.97408     -438.28982      4342.1754    
     49410   322.44479     -928.39436      985.70918      4336.6701    
     49420   300.01665     -927.76149      2328.788       4331.8258    
     49430   311.44533     -928.07432      3036.605       4328.4391    
     49440   313.04933     -928.12105      3312.4906      4326.9535    
     49450   318.19004     -928.27869      3185.76        4327.5266    
     49460   334.32383     -928.76196      2594.0824      4330.0638    
     49470   296.73599     -927.76877      1711.4514      4334.201     
     49480   291.41232     -927.672        404.46301      4339.3718    
     49490   329.56087     -928.78974     -1042.5219      4344.7698    
     49500   300.01996     -928.04062     -1990.9056      4349.5233    
     49510   284.10131     -927.67194     -2705.8228      4353.0181    
     49520   324.5357      -928.8855      -3373.5661      4354.793     
     49530   297.96095     -928.26205     -3341.4705      4354.4748    
     49540   266.6363      -927.50406     -2701.9374      4352.0889    
     49550   300.13325     -928.55068     -1902.0367      4348.0255    
     49560   286.56233     -928.29423     -731.2913       4342.818     
     49570   266.21345     -927.83107      676.47189      4337.2049    
     49580   304.60878     -928.99213      1860.384       4332.0431    
     49590   306.03192     -929.1324       2856.0081      4328.0731    
     49600   281.27027     -928.53857      3485.1597      4325.8954    
     49610   306.06267     -929.32126      3398.9556      4325.8672    
     49620   299.81207     -929.24579      2832.9446      4327.9397    
     49630   274.13349     -928.61946      1863.069       4331.7559    
     49640   271.16896     -928.60388      558.76161      4336.709     
     49650   262.99062     -928.41924     -726.16703      4342.0005    
     49660   261.83021     -928.40438     -1830.4513      4346.8315    
     49670   284.91081     -929.04591     -2702.3004      4350.5072    
     49680   278.0188      -928.84448     -3019.7802      4352.5001    
     49690   275.71965     -928.76446     -2839.1265      4352.6111    
     49700   299.95022     -929.41578     -2378.4514      4350.9499    
     49710   295.30313     -929.26311     -1641.8034      4347.8193    
     49720   283.12422     -928.90071     -766.44219      4343.6851    
     49730   286.01355     -928.95064      116.68413      4339.0975    
     49740   277.37975     -928.67211      1016.4477      4334.6148    
     49750   262.80076     -928.22         1868.0637      4330.7949    
     49760   267.47751     -928.2923       2513.9998      4328.1554    
     49770   276.47687     -928.47541      2874.3183      4327.0871    
     49780   282.34312     -928.56954      2876.7767      4327.804     
     49790   302.83346     -929.07385      2354.356       4330.291     
     49800   301.04306     -928.96784      1448.9527      4334.2276    
     49810   291.94479     -928.66915      286.32175      4339.0524    
     49820   300.5494      -928.86615     -963.06547      4344.0434    
     49830   288.18668     -928.48316     -1938.9836      4348.4357    
     49840   275.70967     -928.09837     -2590.64        4351.616     
     49850   300.5235      -928.7492      -3013.8917      4353.1669    
     49860   302.23317     -928.76266     -2959.8811      4352.8415    
     49870   283.32408     -928.2116      -2401.3802      4350.6824    
     49880   286.86093     -928.28365     -1571.6347      4347.0377    
     49890   295.34818     -928.48756     -527.43998      4342.4378    
     49900   295.54898     -928.45748      590.39256      4337.5377    
     49910   294.14087     -928.38067      1594.4905      4333.0292    
     49920   282.84319     -928.02614      2469.8087      4329.5375    
     49930   283.30522     -927.99446      3013.2586      4327.5912    
     49940   302.30955     -928.4744       3001.8234      4327.5075    
     49950   304.96147     -928.50199      2628.6881      4329.2861    
     49960   311.37346     -928.64039      1913.1425      4332.6912    
     49970   325.17311     -928.99081      856.15128      4337.2737    
     49980   304.44564     -928.39026     -302.52794      4342.3857    
     49990   279.50684     -927.67336     -1490.3905      4347.3016    
     50000   294.11659     -928.04679     -2572.4377      4351.2775    
Loop time of 16.3301 on 1 procs for 50000 steps with 216 atoms

Performance: 264.541 ns/day, 0.091 hours/ns, 3061.823 timesteps/s, 661.354 katom-step/s
98.8% CPU use with 1 MPI tasks x 1 OpenMP threads

MPI task timing breakdown:
Section |  min time  |  avg time  |  max time  |%varavg| %total
---------------------------------------------------------------
Pair    | 15.473     | 15.473     | 15.473     |   0.0 | 94.75
Neigh   | 0          | 0          | 0          |   0.0 |  0.00
Comm    | 0.21727    | 0.21727    | 0.21727    |   0.0 |  1.33
Output  | 0.067341   | 0.067341   | 0.067341   |   0.0 |  0.41
Modify  | 0.51804    | 0.51804    | 0.51804    |   0.0 |  3.17
Other   |            | 0.05403    |            |       |  0.33

Nlocal:            216 ave         216 max         216 min
Histogram: 1 0 0 0 0 0 0 0 0 0
Nghost:            950 ave         950 max         950 min
Histogram: 1 0 0 0 0 0 0 0 0 0
Neighs:              0 ave           0 max           0 min
Histogram: 1 0 0 0 0 0 0 0 0 0
FullNghs:         7344 ave        7344 max        7344 min
Histogram: 1 0 0 0 0 0 0 0 0 0

Total # of neighbors = 7344
Ave neighs/atom = 34
Neighbor list builds = 0
Dangerous builds = 0

# ---------- Average box dimensions ----------

variable sample_interval equal 100
variable nsamples equal ${first_run_step}/${sample_interval}
variable nsamples equal 50000/${sample_interval}
variable nsamples equal 50000/100

variable Lx equal lx
variable Ly equal ly
variable Lz equal lz

variable Etot equal pe
variable Ecoh equal c_eatoms/count(all)
variable Temp equal temp
variable Press equal press
variable Vol equal vol
variable natoms equal count(all)

fix avg all ave/time ${sample_interval} ${nsamples} ${first_run_step} v_Lx v_Ly v_Lz v_Etot v_Ecoh v_Temp v_Press v_Vol v_natoms file ../results/lattice_parameter/box_average_${temperature}.dat
fix avg all ave/time 100 ${nsamples} ${first_run_step} v_Lx v_Ly v_Lz v_Etot v_Ecoh v_Temp v_Press v_Vol v_natoms file ../results/lattice_parameter/box_average_${temperature}.dat
fix avg all ave/time 100 500 ${first_run_step} v_Lx v_Ly v_Lz v_Etot v_Ecoh v_Temp v_Press v_Vol v_natoms file ../results/lattice_parameter/box_average_${temperature}.dat
fix avg all ave/time 100 500 50000 v_Lx v_Ly v_Lz v_Etot v_Ecoh v_Temp v_Press v_Vol v_natoms file ../results/lattice_parameter/box_average_${temperature}.dat
fix avg all ave/time 100 500 50000 v_Lx v_Ly v_Lz v_Etot v_Ecoh v_Temp v_Press v_Vol v_natoms file ../results/lattice_parameter/box_average_300.dat

# ---------- Production ----------
run ${first_run_step}
run 50000
Per MPI rank memory allocation (min/avg/max) = 4.487 | 4.487 | 4.487 Mbytes
   Step          Temp          PotEng         Press          Volume    
     50000   294.11659     -928.04679     -2572.4377      4351.2775    
     50010   298.90835     -928.14123     -3094.1834      4353.657     
     50020   293.7552      -927.96032     -3063.2289      4354.1114    
     50030   320.13969     -928.65769     -2802.6888      4352.6451    
     50040   321.75876     -928.67539     -2149.8107      4349.4418    
     50050   275.26752     -927.36351     -1013.8367      4344.9287    
     50060   286.49653     -927.64652      182.80433      4339.8028    
     50070   327.86476     -928.75241      1343.0558      4334.8152    
     50080   304.30182     -928.05568      2509.9738      4330.6964    
     50090   288.7247      -927.58549      3156.6096      4328.1391    
     50100   331.8881      -928.74631      3119.7493      4327.5283    
     50110   324.96114     -928.52511      2887.3505      4328.8665    
     50120   290.0172      -927.53904      2235.9179      4331.9915    
     50130   316.62148     -928.26304      941.52991      4336.4799    
     50140   313.03755     -928.14518     -331.21706      4341.5616    
     50150   285.14068     -927.35134     -1343.1458      4346.4499    
     50160   309.36839     -927.99991     -2252.792       4350.4932    
     50170   307.8085      -927.92753     -2778.8446      4353.1362    
     50180   299.1917      -927.66183     -3014.8014      4354.0389    
     50190   326.35907     -928.39294     -2880.1942      4353.0581    
     50200   317.20464     -928.12258     -2033.9872      4350.3074    
     50210   301.33545     -927.67223     -943.23913      4346.3011    
     50220   337.27984     -928.66559     -55.452878      4341.7051    
     50230   324.70009     -928.32346      992.42878      4337.1065    
     50240   295.31016     -927.52551      1932.1683      4333.1455    
     50250   321.11137     -928.26964      2322.019       4330.3785    
     50260   306.01103     -927.89118      2552.5299      4329.0704    
     50270   272.07771     -926.99217      2560.1362      4329.3557    
     50280   302.38486     -927.87764      2025.7851      4331.2156    
     50290   305.63026     -928.01571      1363.5425      4334.3418    
     50300   288.60883     -927.59159      683.41442      4338.3267    
     50310   323.47501     -928.6129      -294.24598      4342.7262    
     50320   331.2453      -928.89854     -1281.0021      4346.9438    
     50330   300.45712     -928.12518     -2049.1599      4350.37      
     50340   308.41902     -928.43501     -2684.6098      4352.5102    
     50350   310.07498     -928.58176     -2882.2452      4352.9816    
     50360   286.33922     -928.02497     -2574.7941      4351.6647    
     50370   290.61041     -928.24066     -1988.7752      4348.7434    
     50380   297.03147     -928.51291     -1077.8514      4344.5969    
     50390   287.1203      -928.32165      124.23414      4339.8041    
     50400   299.67778     -928.74597      1193.2729      4335.0972    
     50410   298.26302     -928.77878      2042.2816      4331.1432    
     50420   277.08969     -928.25401      2602.7846      4328.4655    
     50430   274.77479     -928.24096      2766.6203      4327.4031    
     50440   282.14355     -928.48749      2577.988       4328.0571    
     50450   272.89081     -928.26225      2162.6545      4330.3172    
     50460   279.05444     -928.45272      1442.7033      4333.9202    
     50470   307.26075     -929.2467       442.07229      4338.4182    
     50480   311.09794     -929.36218     -600.16682      4343.2002    
     50490   299.56561     -929.05396     -1603.6578      4347.6131    
     50500   280.7115      -928.53941     -2438.6046      4351.0299    
     50510   276.54354     -928.42528     -2980.457       4352.9269    
     50520   285.40708     -928.665       -3118.6297      4352.9652    
     50530   286.09563     -928.67193     -2743.8411      4351.0647    
     50540   274.19799     -928.32053     -1879.9565      4347.466     
     50550   287.35403     -928.65127     -808.2219       4342.702     
     50560   290.28111     -928.67997      415.21446      4337.4504    
     50570   270.96432     -928.07481      1725.8281      4332.4791    
     50580   289.96015     -928.51392      2753.5178      4328.5851    
     50590   317.68428     -929.17227      3313.1745      4326.3975    
     50600   295.74065     -928.447        3414.749       4326.2645    
     50610   295.25726     -928.32083      2901.5287      4328.2376    
     50620   309.43319     -928.58961      1960.1398      4332.0112    
     50630   297.12574     -928.11808      789.73604      4337.0115    
     50640   292.7274      -927.86643     -561.08181      4342.5092    
     50650   302.00666     -927.98908     -1800.3117      4347.6716    
     50660   298.79533     -927.76802     -2615.3739      4351.7322    
     50670   301.69658     -927.73035     -3003.6776      4354.1701    
     50680   312.68427     -927.93227     -2986.37        4354.7357    
     50690   324.62638     -928.1818      -2622.6926      4353.4353    
     50700   335.76168     -928.43541     -1941.1738      4350.4996    
     50710   324.49297     -928.0929      -971.4544       4346.362     
     50720   319.90256     -927.9541       11.689174      4341.6209    
     50730   320.30786     -927.96564      924.53904      4336.8925    
     50740   289.43872     -927.11217      1834.8329      4332.7548    
     50750   287.16208     -927.04802      2515.2113      4329.7612    
     50760   327.8602      -928.17751      2877.258       4328.3306    
     50770   325.98332     -928.13839      2947.3864      4328.6913    
     50780   302.69569     -927.51726      2506.3874      4330.8765    
     50790   322.01046     -928.08571      1499.0072      4334.6102    
     50800   323.95778     -928.17941      366.51077      4339.2923    
     50810   296.40394     -927.45577     -700.95977      4344.2253    
     50820   296.55095     -927.4952      -1755.4729      4348.7314    
     50830   316.79095     -928.09094     -2551.462       4352.1562    
     50840   323.12387     -928.30958     -2865.9426      4354.0049    
     50850   321.78477     -928.3293      -2788.7828      4354.0684    
     50860   321.2532      -928.38516     -2406.6737      4352.389     
     50870   316.79271     -928.34166     -1778.7662      4349.2055    
     50880   311.26325     -928.27395     -964.77511      4344.9125    
     50890   294.95606     -927.90229      71.887758      4340.0287    
     50900   287.91736     -927.77604      1108.5776      4335.1932    
     50910   288.26067     -927.84184      1951.6867      4331.047     
     50920   290.03746     -927.93838      2593.0827      4328.1156    
     50930   285.39959     -927.84845      3066.754       4326.8025    
     50940   301.23163     -928.32357      3006.6085      4327.3812    
     50950   312.64095     -928.67969      2440.3757      4329.8217    
     50960   294.70906     -928.2222       1640.1469      4333.794     
     50970   299.88813     -928.40235      526.47578      4338.7968    
     50980   320.22395     -929.00151     -765.42177      4344.1436    
     50990   313.30386     -928.848       -1926.268       4349.0381    
     51000   293.65623     -928.34106     -2825.9453      4352.7502    
     51010   298.41799     -928.51163     -3397.0793      4354.705     
     51020   281.55126     -928.07907     -3349.3181      4354.5525    
     51030   273.29629     -927.87717     -2829.6148      4352.3081    
     51040   298.57983     -928.5997      -2026.4154      4348.2878    
     51050   289.22288     -928.35241     -799.33413      4343.0117    
     51060   284.32818     -928.2198       610.83215      4337.2394    
     51070   302.1459      -928.70754      1926.8908      4331.8437    
     51080   302.82524     -928.71649      2986.5676      4327.6398    
     51090   286.93641     -928.26583      3630.4965      4325.2823    
     51100   303.067       -928.70697      3579.7944      4325.1565    
     51110   299.79312     -928.61244      3058.4113      4327.2526    
     51120   274.82039     -927.91451      2148.5348      4331.2582    
     51130   292.05045     -928.37923      799.8913       4336.6101    
     51140   305.11187     -928.7148      -607.87436      4342.4926    
     51150   291.7161      -928.30837     -1780.9369      4348.038     
     51160   299.6107      -928.48629     -2784.3298      4352.4952    
     51170   315.07962     -928.86824     -3448.5057      4355.2306    
     51180   290.65156     -928.14134     -3537.6841      4355.8267    
     51190   270.52502     -927.52631     -3146.5959      4354.2121    
     51200   301.56779     -928.3021      -2373.4675      4350.6228    
     51210   319.87867     -928.67668     -1124.5333      4345.5537    
     51220   310.79943     -928.25489      366.32436      4339.7803    
     51230   308.17133     -927.98447      1731.9077      4334.2215    
     51240   324.15734     -928.20869      2744.4073      4329.721     
     51250   316.06692     -927.76765      3404.6657      4326.9153    
     51260   306.19581     -927.31042      3569.8888      4326.2112    
     51270   320.30154     -927.5476       3194.9713      4327.7168    
     51280   332.03211     -927.74774      2393.8007      4331.2177    
     51290   327.57843     -927.53219      1228.5628      4336.2287    
     51300   315.71082     -927.13742     -101.96278      4342.0409    
     51310   319.9468      -927.20482     -1398.6674      4347.8324    
     51320   327.68234     -927.38192     -2487.7818      4352.7911    
     51330   319.00214     -927.11912     -3235.0239      4356.2261    
     51340   327.38759     -927.34762     -3573.1487      4357.653     
     51350   347.41985     -927.92301     -3347.9898      4356.8534    
     51360   342.90527     -927.84648     -2569.4247      4353.9609    
     51370   336.54794     -927.74383     -1541.4349      4349.445     
     51380   338.62159     -927.89519     -445.07471      4343.9422    
     51390   329.90418     -927.76228      771.19097      4338.1475    
     51400   310.83431     -927.3454       1988.4015      4332.8195    
     51410   299.37359     -927.1331       2889.9914      4328.7044    
     51420   301.74272     -927.29935      3296.5801      4326.3594    
     51430   299.80038     -927.34235      3345.6962      4326.0548    
     51440   304.71751     -927.5723       3073.9474      4327.8353    
     51450   326.35257     -928.27027      2337.2907      4331.5384    
     51460   336.71773     -928.66662      1206.2846      4336.726     
     51470   313.42055     -928.13023     -153.91322      4342.7108    
     51480   302.69003     -927.92791     -1621.0312      4348.6485    
     51490   322.46171     -928.5672      -2942.9946      4353.6202    
     51500   302.99344     -928.11449     -3659.6512      4356.8031    
     51510   281.32611     -927.58834     -3845.1577      4357.7174    
     51520   304.68786     -928.30564     -3629.9697      4356.2178    
     51530   314.10631     -928.63912     -2779.4674      4352.4408    
     51540   284.5164      -927.88164     -1377.3076      4346.9117    
     51550   294.1345      -928.19879      60.274804      4340.4798    
     51560   303.91476     -928.50954      1453.7795      4334.0479    
     51570   294.22641     -928.27187      2693.1087      4328.4846    
     51580   295.29589     -928.32795      3641.5935      4324.5631    
     51590   300.74026     -928.50609      4145.1027      4322.8762    
     51600   292.47242     -928.30642      4046.5292      4323.7474    
     51610   299.32492     -928.5289       3168.5458      4327.1275    
     51620   307.05492     -928.77711      1844.8201      4332.5152    
     51630   288.73109     -928.29708      380.12615      4339.1222    
     51640   289.00727     -928.32293     -1276.4697      4346.0349    
     51650   295.49004     -928.51022     -2821.9464      4352.225     
     51660   284.17302     -928.19648     -3895.1455      4356.7194    
     51670   289.07006     -928.33077     -4427.5657      4358.8139    
     51680   298.93604     -928.60548     -4252.2361      4358.151     
     51690   282.89118     -928.16201     -3314.5432      4354.8217    
     51700   285.72607     -928.23767     -2041.7499      4349.3755    
     51710   299.86164     -928.61473     -503.6035       4342.6048    
     51720   305.05792     -928.73256      1246.8761      4335.4736    
     51730   308.02606     -928.78203      2806.6294      4329.0602    
     51740   307.34434     -928.73049      3844.1353      4324.3282    
     51750   291.13491     -928.25084      4356.5066      4321.9409    
     51760   294.16181     -928.30733      4190.5836      4322.2289    
     51770   297.94645     -928.38157      3447.2141      4325.1243    
     51780   283.0494      -927.92909      2330.4386      4330.2099    
     51790   294.74366     -928.19782      744.42637      4336.8097    
     51800   310.0934      -928.54164     -1012.5242      4343.9637    
     51810   278.48271     -927.56208     -2432.924       4350.5982    
     51820   290.46897     -927.77683     -3575.5054      4355.7924    
     51830   321.5181      -928.49273     -4216.7096      4358.8072    
     51840   299.73643     -927.74019     -4068.8158      4359.2203    
     51850   305.47822     -927.76359     -3450.2934      4357.0718    
     51860   351.74363     -928.90962     -2491.1384      4352.721     
     51870   334.36521     -928.30595     -1034.6726      4346.7694    
     51880   303.46695     -927.3574       550.18725      4340.1051    
     51890   326.37188     -927.91177      1863.4929      4333.7008    
     51900   332.59369     -928.01174      2979.3521      4328.3923    
     51910   315.71145     -927.49241      3770.8642      4324.8825    
     51920   304.59659     -927.15161      4026.752       4323.6742    
     51930   298.56808     -926.962        3772.6594      4324.9599    
     51940   316.41799     -927.44287      2970.4081      4328.6146    
     51950   323.53147     -927.63346      1728.7896      4334.1813    
     51960   315.18116     -927.40232      253.50884      4340.9242    
     51970   336.47525     -928.00165     -1320.16        4347.9382    
     51980   345.05564     -928.2648      -2753.8443      4354.2403    
     51990   318.53093     -927.57384     -3825.1552      4358.9137    
     52000   312.16603     -927.45818     -4444.7751      4361.2458    
     52010   324.10504     -927.86994     -4423.7101      4360.8112    
     52020   317.86302     -927.7987      -3640.7222      4357.5901    
     52030   307.9732      -927.63598     -2387.2107      4352.0286    
     52040   316.09498     -927.97892     -897.43804      4344.8847    
     52050   309.24259     -927.90444      920.6024       4337.0961    
     52060   303.57032     -927.85341      2720.0407      4329.7851    
     52070   309.80072     -928.1252       4005.0487      4324.0618    
     52080   323.1559      -928.60014      4617.8994      4320.7415    
     52090   303.7943      -928.1701       4762.1606      4320.2538    
     52100   284.82347     -927.73788      4238.0988      4322.7214    
     52110   300.86203     -928.26507      2909.157       4327.8607    
     52120   296.97688     -928.22321      1216.0349      4334.9164    
     52130   285.42597     -927.94528     -529.47653      4342.8762    
     52140   310.24645     -928.65898     -2265.6345      4350.6522    
     52150   316.63394     -928.85545     -3709.887       4357.148     
     52160   287.05404     -928.05048     -4666.54        4361.4225    
     52170   296.22314     -928.32214     -5182.8125      4362.8108    
     52180   298.4575      -928.40554     -4894.0141      4360.9528    
     52190   283.9868      -928.02729     -3727.4059      4355.9861    
     52200   287.59067     -928.14384     -1951.7237      4348.5986    
     52210   293.50998     -928.3093       175.9258       4339.8797    
     52220   304.11965     -928.59059      2281.1026      4331.1437    
     52230   315.88647     -928.89909      4110.4485      4323.7052    
     52240   305.68237     -928.60392      5378.3494      4318.7133    
     52250   297.20133     -928.36829      5677.1646      4316.9709    
     52260   308.44024     -928.69394      5041.6414      4318.7181    
     52270   291.34061     -928.24096      3825.3         4323.6422    
     52280   276.50202     -927.846        2116.8192      4331.0501    
     52290   291.14272     -928.25361     -4.248846       4339.9223    
     52300   287.4675      -928.13183     -2120.1164      4348.9712    
     52310   292.82418     -928.24696     -3953.2084      4356.8624    
     52320   290.03105     -928.12866     -5141.3372      4362.4136    
     52330   279.57333     -927.79792     -5525.7753      4364.8197    
     52340   304.95623     -928.46447     -5179.9963      4363.7683    
     52350   327.87666     -929.0673      -4084.5539      4359.426     
     52360   306.65323     -928.45309     -2386.8994      4352.4417    
     52370   308.71299     -928.48587     -527.17658      4343.8407    
     52380   326.10359     -928.9377       1399.372       4334.7834    
     52390   293.46819     -927.99602      3363.8702      4326.4851    
     52400   288.5755      -927.82153      4725.7115      4320.1506    
     52410   307.21786     -928.29761      5418.7917      4316.6545    
     52420   291.52944     -927.82532      5604.0223      4316.481     
     52430   286.02601     -927.64114      4954.9611      4319.783     
     52440   309.37948     -928.25138      3402.5337      4326.217     
     52450   302.3001      -928.00208      1395.4277      4334.9017    
     52460   300.49912     -927.88329     -853.80317      4344.6277    
     52470   318.02521     -928.27773     -3020.8595      4354.0033    
     52480   312.85924     -928.02935     -4672.9637      4361.657     
     52490   311.11812     -927.879       -5749.7439      4366.4896    
     52500   317.47715     -927.9618      -6052.8217      4367.7618    
     52510   305.42253     -927.54631     -5337.639       4365.2325    
     52520   320.09636     -927.88102     -3904.3662      4359.2882    
     52530   349.07777     -928.61211     -2037.4621      4350.7902    
     52540   321.9359      -927.7911       270.19045      4340.9092    
     52550   307.5701      -927.32795      2525.4188      4331.0682    
     52560   334.66816     -928.01276      4309.2634      4322.6662    
     52570   299.6207      -926.97921      5702.8624      4316.844     
     52580   281.17807     -926.42016      6304.5772      4314.4762    
     52590   341.08499     -928.04408      5863.364       4315.9696    
     52600   347.20138     -928.19386      4808.6247      4321.14      
     52610   306.64684     -927.07414      3136.7         4329.3961    
     52620   333.16604     -927.82266      694.0299       4339.7373    
     52630   354.44659     -928.42982     -1855.3604      4350.6988    
     52640   318.03405     -927.44992     -4024.0524      4360.6918    
     52650   307.18898     -927.19237     -5887.8345      4368.292     
     52660   321.79994     -927.6663      -7063.0491      4372.2733    
     52670   314.58954     -927.57439     -7058.4273      4371.8454    
     52680   297.10391     -927.22703     -5940.7316      4366.9462    
     52690   305.56247     -927.61694     -3979.9784      4358.2317    
     52700   308.07821     -927.84381     -1278.689       4346.9276    
     52710   318.79189     -928.2879       1656.3374      4334.7105    
     52720   325.41444     -928.61244      4336.9627      4323.4067    
     52730   305.0987      -928.17712      6398.4434      4314.6839    
     52740   299.63963     -928.14361      7426.3863      4309.8179    
     52750   311.66144     -928.59992      7386.2198      4309.4798    
     52760   305.84239     -928.56777      6322.4263      4313.6995    
     52770   283.80933     -928.07054      4285.9754      4321.8858    
     52780   291.54233     -928.3723       1606.8909      4332.8499    
     52790   286.38727     -928.28203     -1093.5766      4344.9895    
     52800   276.78856     -928.03205     -3679.2454      4356.6136    
     52810   301.58745     -928.71605     -6008.6928      4366.0591    
     52820   295.63606     -928.54577     -7358.8165      4371.8329    
     52830   274.07203     -927.95297     -7494.1797      4373.0233    
     52840   298.05159     -928.63823     -6698.6169      4369.4729    
     52850   303.85206     -928.82809     -4925.5029      4361.6626    
     52860   273.67001     -928.0118      -2325.1788      4350.7027    
     52870   293.34803     -928.55574      505.93773      4338.2071    
     52880   314.47076     -929.11366      3388.3315      4325.9602    
     52890   286.893       -928.30504      5968.0371      4315.7543    
     52900   301.98723     -928.68383      7431.3121      4309.1509    
     52910   314.14038     -928.99814      7768.5225      4307.0717    
     52920   282.06828     -928.10877      7180.1254      4309.7674    
     52930   284.95025     -928.2021       5464.4944      4316.9083    
     52940   291.73732     -928.39376      2885.3942      4327.4989    
     52950   268.19349     -927.71744      9.7334009      4340.0049    
     52960   287.83715     -928.20612     -2898.3862      4352.6461    
     52970   311.83843     -928.78435     -5324.0596      4363.5963    
     52980   289.97707     -928.08445     -6835.5201      4371.2997    
     52990   306.59301     -928.4655      -7651.1983      4374.7258    
     53000   321.03118     -928.80171     -7458.6315      4373.3321    
     53010   290.9442      -927.92483     -5983.4679      4367.235     
     53020   285.10878     -927.72514     -3692.8825      4357.3426    
     53030   310.03324     -928.35452     -956.2202       4345.1014    
     53040   322.87039     -928.61922      2007.0404      4332.243     
     53050   311.61068     -928.20024      4813.5633      4320.6148    
     53060   299.7491      -927.76333      6864.9628      4311.9305    
     53070   305.37056     -927.82134      7865.085       4307.4406    
     53080   306.99169     -927.78666      7810.9201      4307.7683    
     53090   299.24408     -927.51239      6644.0836      4312.8976    
     53100   307.43165     -927.68664      4508.9416      4322.1516    
     53110   328.08137     -928.19431      1733.0602      4334.2588    
     53120   330.82834     -928.18946     -1234.9956      4347.5314    
     53130   323.63465     -927.90043     -4040.0002      4360.1165    
     53140   322.51069     -927.77995     -6360.7285      4370.2278    
     53150   321.21086     -927.66944     -7842.7385      4376.369     
     53160   316.15719     -927.48491     -8188.8955      4377.5761    
     53170   303.29672     -927.11376     -7334.7838      4373.6156    
     53180   310.15761     -927.30644     -5514.4917      4365.0245    
     53190   314.24112     -927.41793     -2784.3867      4352.9842    
     53200   304.21315     -927.11574      610.93586      4339.2434    
     53210   333.6157      -927.88067      3845.5193      4325.9111    
     53220   361.74039     -928.60564      6418.7731      4314.9802    
     53230   322.99623     -927.5054       8190.9897      4308.025     
     53240   315.15783     -927.30719      8647.9322      4306.0882    
     53250   342.14045     -928.12793      7684.5352      4309.4383    
     53260   322.45637     -927.70281      5703.1766      4317.5163    
     53270   303.21875     -927.31037      2954.0346      4329.131     
     53280   325.22352     -928.06689     -281.51616      4342.6022    
     53290   327.33187     -928.2767      -3417.2138      4355.9337    
     53300   295.79983     -927.54098     -5987.7098      4367.1507    
     53310   289.70592     -927.49831     -7805.0772      4374.6016    
     53320   291.39951     -927.67528     -8464.5458      4377.1311    
     53330   294.85531     -927.91101     -7773.7926      4374.3285    
     53340   299.30082     -928.17969     -5948.5937      4366.6456    
     53350   296.97376     -928.24613     -3289.8369      4355.2703    
     53360   305.58188     -928.58918     -218.42774      4341.907     
     53370   303.85177     -928.61349      2913.8251      4328.4997    
     53380   294.89314     -928.40965      5662.3084      4316.9835    
     53390   299.06987     -928.55968      7591.7576      4309.0174    
     53400   315.88767     -929.07719      8332.515       4305.7331    
     53410   304.75138     -928.84622      7866.3781      4307.5556    
     53420   286.21457     -928.42406      6184.2405      4314.1801    
     53430   285.5036      -928.48952      3577.1222      4324.5839    
     53440   285.5296      -928.55035      541.03881      4337.1796    
     53450   275.19382     -928.28894     -2482.3837      4350.091     
     53460   264.75641     -927.99097     -5128.1743      4361.4225    
     53470   270.67947     -928.12761     -6954.5593      4369.508     
     53480   284.47642     -928.48198     -7613.9956      4373.202     
     53490   295.63607     -928.77566     -7204.7654      4372.0919    
     53500   299.8248      -928.88976     -5937.6142      4366.4607    
     53510   296.24403     -928.79217     -3880.8337      4357.1594    
     53520   291.90653     -928.66055     -1185.8574      4345.5333    
     53530   301.61006     -928.89498      1673.3528      4333.2893    
     53540   292.94464     -928.59701      4281.0275      4322.2053    
     53550   279.25851     -928.14842      6214.6341      4313.8597    
     53560   292.96817     -928.45923      7177.9399      4309.3908    
     53570   300.7671      -928.61346      7216.9383      4309.3515    
     53580   290.36569     -928.2759       6269.8905      4313.7258    
     53590   292.5372      -928.29043      4324.7508      4321.9078    
     53600   294.13712     -928.27241      1744.1038      4332.7014    
     53610   286.93325     -927.98466     -933.27487      4344.5217    
     53620   317.97752     -928.7319      -3433.7843      4355.6943    
     53630   315.5039      -928.53441     -5369.3383      4364.6573    
     53640   290.47843     -927.72587     -6574.2004      4370.1939    
     53650   304.70755     -928.0231      -7027.4808      4371.5543    
     53660   320.59446     -928.3817      -6431.444       4368.5036    
     53670   295.01601     -927.609       -4725.6529      4361.4791    
     53680   290.46303     -927.42548     -2464.3851      4351.5872    
     53690   311.93375     -927.94762      42.719187      4340.2871    
     53700   300.04754     -927.52796      2750.0948      4329.1785    
     53710   305.85542     -927.59444      5113.1133      4319.9121    
     53720   335.38877     -928.3255       6630.1737      4313.8915    
     53730   347.86197     -928.61578      7089.8572      4311.9898    
     53740   330.70651     -928.13095      6509.2843      4314.4404    
     53750   313.08778     -927.66649      4945.3179      4320.8462    
     53760   304.62928     -927.46253      2709.2366      4330.2327    
     53770   323.59167     -928.01398      49.524463      4341.2031    
     53780   311.67727     -927.6987      -2487.0176      4352.1153    
     53790   295.47324     -927.25473     -4595.7264      4361.3832    
     53800   324.95174     -928.0818      -6099.1321      4367.6867    
     53810   329.00408     -928.22663     -6668.3105      4370.1131    
     53820   285.63639     -927.07508     -6189.8859      4368.3494    
     53830   292.20953     -927.31534     -4982.7223      4362.7364    
     53840   317.12833     -928.06474     -3104.4492      4354.1014    
     53850   309.68479     -927.90824     -625.11309      4343.6842    
     53860   312.39122     -928.02032      1950.3831      4333.0479    
     53870   315.15731     -928.12319      4164.0775      4323.7782    
     53880   311.03004     -928.03321      5744.1845      4317.204     
     53890   319.33698     -928.29833      6524.8475      4314.2413    
     53900   327.7068      -928.58502      6322.7328      4315.3023    
     53910   325.43587     -928.59445      5080.9791      4320.2074    
     53920   309.74746     -928.23404      3008.7304      4328.1599    
     53930   287.26374     -927.66387      618.88534      4337.8781    
     53940   295.65896     -927.92334     -1841.0281      4347.8676    
     53950   304.51495     -928.17697     -3924.4275      4356.6041    
     53960   277.08501     -927.41343     -5194.6081      4362.8072    
     53970   280.35282     -927.49887     -5740.2435      4365.6909    
     53980   317.37187     -928.52828     -5563.7115      4364.951     
     53990   309.6949      -928.33041     -4456.9736      4360.7695    
     54000   297.40762     -928.01173     -2768.3011      4353.8852    
     54010   314.79331     -928.51322     -888.54687      4345.3929    
     54020   319.76871     -928.66677      1081.6171      4336.5001    
     54030   304.19584     -928.2476       2939.1937      4328.4336    
     54040   301.38356     -928.18265      4337.248       4322.3078    
     54050   295.42714     -928.03288      5112.2604      4318.9403    
     54060   298.68055     -928.14693      5097.6009      4318.749     
     54070   300.16834     -928.22043      4380.7621      4321.6811    
     54080   296.4081      -928.15195      3122.3383      4327.2613    
     54090   302.26136     -928.34794      1450.1286      4334.6873    
     54100   304.87124     -928.44771     -461.04772      4342.9081    
     54110   297.62363     -928.26671     -2269.2178      4350.7394    
     54120   292.30419     -928.13359     -3713.1571      4357.0619    
     54130   296.66941     -928.26868     -4639.2472      4360.9899    
     54140   306.31628     -928.55888     -4903.5775      4361.9765    
     54150   296.99963     -928.33446     -4397.2737      4359.9058    
     54160   282.2113      -927.96121     -3282.7156      4355.1397    
     54170   303.31707     -928.58089     -1814.5465      4348.416     
     54180   313.17551     -928.88734     -26.056845      4340.6949    
     54190   275.32796     -927.86114      1829.8231      4333.1028    
     54200   284.39738     -928.1273       3167.202       4326.7546    
     54210   303.74026     -928.67509      4062.8352      4322.46      
     54220   288.97204     -928.28047      4527.6634      4320.7336    
     54230   293.76774     -928.43559      4296.2443      4321.8039    
     54240   304.16949     -928.75393      3403.7546      4325.4872    
     54250   277.98356     -928.05503      2194.0164      4331.2208    
     54260   302.94991     -928.77135      553.18088      4338.2192    
     54270   315.96247     -929.15217     -1068.6851      4345.4741    
     54280   281.89535     -928.22464     -2437.5609      4351.9794    
     54290   292.81544     -928.54338     -3697.0828      4356.8718    
     54300   310.12252     -929.04494     -4465.2874      4359.3987    
     54310   278.69728     -928.20143     -4405.9174      4359.1291    
     54320   281.50325     -928.31241     -3839.6538      4356.1209    
     54330   278.96246     -928.27062     -2658.0748      4350.7871    
     54340   253.44405     -927.57344     -967.34579      4343.909     
     54350   288.55989     -928.537        678.92419      4336.5415    
     54360   314.99233     -929.24088      2330.9001      4329.7255    
     54370   271.04626     -927.9828       3912.4786      4324.4744    
     54380   294.62002     -928.59579      4594.3465      4321.686     
     54390   340.65522     -929.82932      4423.0534      4321.7438    
     54400   296.39054     -928.57039      3888.3774      4324.5289    
     54410   271.77862     -927.86417      2781.3368      4329.6645    
     54420   322.4533      -929.23481      918.18277      4336.423     
     54430   302.46926     -928.62989     -907.59487      4343.6774    
     54440   262.39054     -927.46354     -2423.3299      4350.2918    
     54450   280.27884     -927.89022     -3581.213       4355.3213    
     54460   303.45677     -928.4448      -4135.1359      4358.0679    
     54470   295.5137      -928.13279     -3982.1014      4358.2181    
     54480   303.21192     -928.25917     -3378.7325      4355.8876    
     54490   306.96282     -928.27362     -2320.1278      4351.4986    
     54500   314.22536     -928.38672     -989.58935      4345.7399    
     54510   306.31313     -928.07895      441.48664      4339.4602    
     54520   291.08749     -927.5698       1816.3933      4333.5546    
     54530   313.54301     -928.10415      2859.6151      4328.8544    
     54540   331.33372     -928.51215      3536.7018      4325.9849    
     54550   311.77959     -927.90278      3832.0826      4325.3376    
     54560   304.04898     -927.64075      3486.2151      4327.0484    
     54570   310.67792     -927.78448      2529.566       4330.878     
     54580   314.96719     -927.86738      1233.689       4336.2255    
     54590   320.14969     -927.97969     -184.10303      4342.2814    
     54600   312.92272     -927.75197     -1541.009       4348.1631    
     54610   312.71797     -927.72507     -2685.1644      4353.027     
     54620   311.47832     -927.67625     -3335.9632      4356.1793    
     54630   314.52155     -927.75699     -3498.7911      4357.2259    
     54640   326.74847     -928.10743     -3288.4422      4356.081     
     54650   329.61185     -928.21802     -2568.5739      4352.9144    
     54660   312.83834     -927.80028     -1372.2332      4348.2063    
     54670   314.42989     -927.90204     -159.48069      4342.7042    
     54680   319.85312     -928.12465      902.40647      4337.1692    
     54690   288.53691     -927.33376      2001.9289      4332.2777    
     54700   293.08233     -927.54152      2807.1631      4328.6816    
     54710   307.99714     -928.05098      3211.7487      4326.8593    
     54720   299.22037     -927.91961      3155.2578      4327.0351    
     54730   292.35147     -927.85158      2701.7152      4329.1566    
     54740   306.73703     -928.38489      1921.4538      4332.9281    
     54750   317.10404     -928.82265      853.81207      4337.8539    
     54760   311.55021     -928.82683     -406.73436      4343.2646    
     54770   300.49527     -928.6734      -1640.3906      4348.3788    
     54780   291.17783     -928.54999     -2585.0346      4352.4382    
     54790   297.00005     -928.82947     -3195.0843      4354.8566    
     54800   294.85993     -928.87329     -3434.2736      4355.2642    
     54810   273.72907     -928.3676      -3181.9833      4353.536     
     54820   273.97302     -928.43132     -2441.761       4349.8534    
     54830   282.45163     -928.70373     -1302.6815      4344.7001    
     54840   272.65124     -928.44859      100.93259      4338.8028    
     54850   265.06959     -928.23502      1503.8868      4333.0342    
     54860   270.44998     -928.36258      2694.3335      4328.2557    
     54870   293.95947     -928.9832       3497.1349      4325.1851    
     54880   300.09844     -929.12203      3833.0029      4324.2987    
     54890   286.03805     -928.70654      3564.8591      4325.7775    
     54900   297.94497     -929.0146       2628.4012      4329.4336    
     54910   313.21113     -929.41582      1331.6532      4334.6899    
     54920   281.86415     -928.5218      -25.439424      4340.7485    
     54930   274.12162     -928.27546     -1504.8032      4346.7494    
     54940   295.16388     -928.81432     -2812.7988      4351.7788    
     54950   280.0425      -928.34209     -3488.3074      4355.0432    
     54960   270.14304     -928.01332     -3642.4359      4356.1173    
     54970   302.22451     -928.844       -3438.5159      4354.9075    
     54980   300.94728     -928.7447      -2653.7988      4351.5769    
     54990   286.75283     -928.29052     -1455.8777      4346.6298    
     55000   298.02511     -928.53825     -146.85488      4340.8184    
     55010   286.89068     -928.15501      1244.2382      4334.9734    
     55020   277.91618     -927.82672      2455.2332      4329.9479    
     55030   293.95397     -928.18458      3297.587       4326.4778    
     55040   313.17806     -928.6282       3657.0594      4325.0665    
     55050   322.2414      -928.80146      3464.4604      4325.9175    
     55060   301.54584     -928.16642      2889.5047      4328.9097    
     55070   292.43489     -927.8635       1852.8771      4333.6719    
     55080   320.36007     -928.58734      384.90019      4339.5531    
     55090   318.44915     -928.48516     -1082.9536      4345.6559    
     55100   282.39614     -927.44126     -2257.0855      4351.0744    
     55110   299.66315     -927.87797     -3260.0977      4355.0578    
     55120   325.15853     -928.54416     -3835.3921      4356.9915    
     55130   297.62115     -927.75199     -3681.4387      4356.5376    
     55140   284.44075     -927.36719     -2924.2962      4353.798     
     55150   316.29389     -928.23016     -1786.8441      4349.2554    
     55160   336.26516     -928.76663     -419.58853      4343.6338    
     55170   313.95405     -928.141        961.73879      4337.7912    
     55180   300.84059     -927.77699      2064.0669      4332.5772    
     55190   311.08697     -928.0634       2796.9062      4328.6698    
     55200   313.01262     -928.12738      3191.7873      4326.5164    
     55210   282.23338     -927.28838      3270.1163      4326.3542    
     55220   284.86008     -927.37595      2807.0795      4328.2076    
     55230   307.36546     -928.01098      1990.9852      4331.7949    
     55240   319.14914     -928.352        1035.5881      4336.6154    
     55250   307.0211      -928.03458      1.0015272      4342.0752    
     55260   324.50047     -928.54789     -1269.1436      4347.5125    
     55270   332.12494     -928.80563     -2410.9367      4352.1495    
     55280   316.16298     -928.4373      -3140.7048      4355.2799    
     55290   301.50577     -928.13507     -3474.266       4356.4424    
     55300   294.98704     -928.08915     -3420.1968      4355.4296    
     55310   289.71644     -928.10809     -2847.0234      4352.2929    
     55320   282.14059     -928.08209     -1765.9368      4347.406     
     55330   278.21957     -928.15962     -451.56895      4341.4458    
     55340   280.17585     -928.38774      930.16579      4335.2381    
     55350   282.03357     -928.59147      2252.778       4329.6432    
     55360   283.93971     -928.77101      3296.0258      4325.4693    
     55370   278.48975     -928.72191      3867.9509      4323.347     
     55380   273.72717     -928.6682       3837.1302      4323.6152    
     55390   287.06306     -929.10017      3212.6333      4326.2493    
     55400   302.83023     -929.5904       2130.7157      4330.8661    
     55410   292.33598     -929.34165      755.86007      4336.8011    
     55420   279.42154     -929.0105      -808.92815      4343.1985    
     55430   271.48879     -928.79873     -2254.387       4349.0913    
     55440   267.17912     -928.66967     -3286.6182      4353.5818    
     55450   283.0648      -929.09066     -3892.6274      4356.0143    
     55460   277.88857     -928.92154     -3892.11        4356.0171    
     55470   257.7973      -928.3338      -3255.1918      4353.5982    
     55480   275.05071     -928.77125     -2258.0266      4349.1532    
     55490   296.62991     -929.31241     -970.34465      4343.3195    
     55500   270.63594     -928.5224       600.37413      4336.918     
     55510   264.62671     -928.27826      2046.7509      4330.9128    
     55520   289.74511     -928.88087      3166.4529      4326.1946    
     55530   293.61383     -928.88644      3921.8441      4323.4531    
     55540   284.76222     -928.54713      4110.7739      4323.1389    
     55550   293.86366     -928.71406      3592.6662      4325.3565    
     55560   312.39357     -929.14669      2504.418       4329.7908    
     55570   304.87353     -928.86447      1113.1774      4335.7816    
     55580   285.65353     -928.26499     -486.61068      4342.464     
     55590   274.8329      -927.89516     -2070.6486      4348.8455    
     55600   294.04947     -928.35262     -3365.5519      4353.9373    
     55610   287.73648     -928.10023     -3951.5291      4356.9414    
     55620   278.08248     -927.76391     -3916.481       4357.4792    
     55630   312.4694      -928.65483     -3517.1133      4355.559     
     55640   316.62669     -928.71415     -2505.0349      4351.4578    
     55650   293.9299      -928.04084     -982.83797      4345.8194    
     55660   304.93332     -928.30477      547.24943      4339.5825    
     55670   329.76747     -928.95332      1801.6875      4333.6969    
     55680   311.28789     -928.41078      2775.9422      4328.9468    
     55690   287.2506      -927.72405      3380.8577      4325.9286    
     55700   287.84937     -927.72282      3546.525       4325.0087    
     55710   293.10836     -927.84968      3248.9543      4326.2854    
     55720   297.59577     -927.95558      2509.0688      4329.5737    
     55730   298.0966      -927.94942      1431.0785      4334.4205    
     55740   311.18986     -928.29114      142.7538       4340.1608    
     55750   314.49011     -928.3617      -1091.8035      4346.0018    
     55760   299.22164     -927.91922     -2081.1728      4351.1774    
     55770   319.55795     -928.46896     -3030.6281      4355.0444    
     55780   338.05294     -928.98163     -3668.8973      4357.0141    
     55790   295.38081     -927.8142      -3521.947       4356.7098    
     55800   285.97429     -927.57493     -2906.4262      4354.2063    
     55810   324.51578     -928.66944     -2124.8767      4349.8801    
     55820   306.07712     -928.18832     -941.28638      4344.2493    
     55830   271.96071     -927.26715      535.03012      4338.0592    
     55840   301.91301     -928.11457      1905.5497      4332.2157    
     55850   323.04508     -928.71795      3031.0825      4327.5686    
     55860   301.01754     -928.13466      3759.7386      4324.8089    
     55870   291.70557     -927.91673      3794.3337      4324.366     
     55880   284.20411     -927.75349      3315.5451      4326.2727    
     55890   303.96939     -928.35425      2356.0309      4330.2315    
     55900   314.31837     -928.70633      1112.5514      4335.6608    
     55910   298.54325     -928.34757     -252.98551      4341.7937    
     55920   292.70423     -928.27347     -1607.0897      4347.7807    
     55930   312.67275     -928.93639     -2815.956       4352.7704    
     55940   295.35658     -928.58841     -3517.7345      4356.0167    
     55950   277.42023     -928.23099     -3773.4538      4357.0646    
     55960   288.25217     -928.67961     -3651.4069      4355.7464    
     55970   287.31186     -928.80511     -2968.604       4352.1533    
     55980   273.61874     -928.56184     -1724.1176      4346.7248    
     55990   274.40611     -928.69654     -243.87776      4340.2342    
     56000   275.43758     -928.81188      1285.3743      4333.6091    
     56010   281.13237     -929.03513      2664.4544      4327.7969    
     56020   270.40505     -928.78353      3735.5159      4323.6477    
     56030   275.9094      -928.96854      4204.7068      4321.8059    
     56040   293.46586     -929.48403      4004.1559      4322.5565    
     56050   280.03501     -929.13564      3276.952       4325.785     
     56060   269.20584     -928.85009      2009.8305      4331.0421    
     56070   275.50024     -929.02253      382.9          4337.5519    
     56080   276.74184     -929.03462     -1236.3383      4344.3184    
     56090   273.25736     -928.89861     -2647.4503      4350.3314    
     56100   267.56618     -928.68744     -3675.8535      4354.7024    
     56110   257.33052     -928.33864     -4082.0279      4356.7883    
     56120   275.28759     -928.76161     -3907.8601      4356.3232    
     56130   290.58093     -929.09762     -3107.2939      4353.423     
     56140   292.39732     -929.05498     -1861.5284      4348.5893    
     56150   298.89217     -929.13981     -435.75907      4342.6014    
     56160   298.7183      -929.03803      1014.8606      4336.3542    
     56170   287.7587      -928.63965      2305.8855      4330.7498    
     56180   297.8897      -928.83158      3129.3814      4326.5747    
     56190   295.23904     -928.67601      3497.6969      4324.3391    
     56200   256.74775     -927.53727      3557.4272      4324.2785    
     56210   270.3672      -927.84985      3080.0087      4326.4159    
     56220   309.21039     -928.85554      2117.7782      4330.4605    
     56230   294.23105     -928.37306      978.49563      4335.8338    
     56240   275.62553     -927.799       -262.80275      4341.831     
     56250   307.85338     -928.63429     -1663.7085      4347.6665    
     56260   316.06252     -928.80499     -2735.6269      4352.4854    
     56270   289.54418     -928.02566     -3305.5496      4355.613     
     56280   293.29613     -928.09544     -3554.1522      4356.6707    
     56290   316.90306     -928.7221      -3361.9066      4355.5058    
     56300   315.30779     -928.66111     -2574.5559      4352.2508    
     56310   301.85005     -928.28013     -1390.2199      4347.3977    
     56320   312.1871      -928.5624      -169.83165      4341.677     
     56330   308.9092      -928.46776      1070.7378      4335.8615    
     56340   281.39256     -927.69807      2245.1805      4330.7253    
     56350   282.00702     -927.70222      3067.3765      4326.9837    
     56360   306.04688     -928.35257      3423.4518      4325.1404    
     56370   294.14659     -928.00716      3370.1527      4325.4203    
     56380   282.01398     -927.65785      2840.3054      4327.7866    
     56390   294.53613     -927.98764      1962.2037      4331.922     
     56400   308.85297     -928.36092      877.43569      4337.291     
     56410   316.02991     -928.53506     -383.43359      4343.2192    
     56420   316.6095      -928.52931     -1662.2201      4348.9233    
     56430   313.8053      -928.43576     -2737.6273      4353.6055    
     56440   314.03886     -928.43546     -3493.4332      4356.5848    
     56450   313.02012     -928.41311     -3771.8469      4357.3847    
     56460   295.5539      -927.94477     -3437.5537      4355.8341    
     56470   293.04462     -927.89533     -2681.3342      4352.1329    
     56480   304.8353      -928.24299     -1542.6795      4346.7622    
     56490   288.69601     -927.81108     -42.312725      4340.4464    
     56500   286.33184     -927.75206      1450.855       4334.1122    
     56510   315.20609     -928.55526      2651.0956      4328.679     
     56520   301.03179     -928.16703      3675.8109      4324.9038    
     56530   284.05217     -927.70554      4229.3807      4323.4059    
     56540   329.75822     -928.99505      3868.6917      4324.502     
     56550   328.78222     -929.01106      2995.1326      4327.9981    
     56560   272.38523     -927.50082      1842.9459      4333.3708    
     56570   285.04107     -927.90326      178.3468       4339.8891    
     56580   311.05695     -928.67462     -1553.9076      4346.5383    
     56590   294.00091     -928.25322     -2864.1693      4352.2527    
     56600   293.74762     -928.30495     -3781.4708      4356.191     
     56610   285.08192     -928.12987     -4077.261       4357.7782    
     56620   278.88458     -928.02449     -3754.8687      4356.8209    
     56630   312.36801     -929.02983     -3058.0664      4353.5068    
     56640   307.11598     -928.97271     -1807.6984      4348.2939    
     56650   275.8676      -928.18729     -207.57436      4341.967     
     56660   307.80977     -929.1508       1135.6966      4335.5002    
     56670   314.40051     -929.41864      2354.5755      4329.7488    
     56680   262.23842     -928.04765      3397.6245      4325.4703    
     56690   264.01158     -928.15753      3764.2747      4323.2803    
     56700   293.29727     -929.02842      3595.7787      4323.4162    
     56710   267.05787     -928.35173      3151.9542      4325.7912    
     56720   262.00257     -928.24926      2188.0177      4330.1193    
     56730   291.77408     -929.09941      794.6536       4335.8111    
     56740   287.02367     -928.97772     -580.02958      4342.0257    
     56750   276.71058     -928.68985     -1877.8381      4347.9004    
     56760   287.65753     -928.97996     -2983.6696      4352.6179    
     56770   294.71775     -929.15519     -3625.9342      4355.4875    
     56780   281.24855     -928.75874     -3742.3228      4356.098     
     56790   272.50166     -928.4888      -3352.67        4354.3698    
     56800   283.92273     -928.7664      -2444.1256      4350.5509    
     56810   301.17733     -929.18943     -1164.9144      4345.2111    
     56820   301.02188     -929.11552      233.5609       4339.148     
     56830   286.96101     -928.64582      1552.8027      4333.2326    
     56840   280.81103     -928.38325      2654.5693      4328.2842    
     56850   282.63588     -928.32678      3436.2536      4324.9828    
     56860   275.60884     -928.01217      3746.3303      4323.8067    
     56870   284.94983     -928.14344      3391.8364      4324.9387    
     56880   292.85929     -928.22479      2616.7406      4328.1766    
     56890   280.23753     -927.73846      1748.0758      4333.065     
     56900   301.42872     -928.19455      559.85322      4339.0529    
     56910   337.73455     -929.07131     -907.85339      4345.4013    
     56920   326.43339     -928.65136     -2180.2414      4351.2137    
     56930   301.7418      -927.89276     -3090.1145      4355.6888    
     56940   318.07293     -928.29261     -3756.9399      4358.2337    
     56950   328.44387     -928.54674     -4020.3374      4358.4266    
     56960   296.6283      -927.65104     -3585.0894      4356.1143    
     56970   283.48516     -927.28159     -2593.8327      4351.5627    
     56980   294.74745     -927.58313     -1173.2297      4345.3971    
     56990   314.69553     -928.11934      458.45887      4338.5065    
     57000   316.00749     -928.139        2063.9131      4331.9072    
     57010   294.63559     -927.53134      3445.8165      4326.5944    
     57020   308.51905     -927.90625      4240.0896      4323.4065    
     57030   332.23826     -928.56651      4373.2797      4322.8336    
     57040   319.75706     -928.2432       3922.7652      4324.9677    
     57050   307.14652     -927.93022      2830.5597      4329.5334    
     57060   319.24408     -928.30998      1171.0657      4335.8621    
     57070   299.27443     -927.79762     -551.83922      4342.953     
     57080   291.97075     -927.62869     -2130.2381      4349.7324    
     57090   315.45661     -928.31204     -3393.7793      4355.2077    
     57100   313.26493     -928.29219     -4112.8132      4358.5816    
     57110   285.30126     -927.56375     -4230.3882      4359.3913    
     57120   300.16615     -928.02866     -3899.5311      4357.5451    
     57130   316.39011     -928.54067     -2950.8174      4353.2632    
     57140   296.80902     -928.06308     -1427.5159      4347.1485    
     57150   292.1658      -927.99392      201.96023      4340.142     
     57160   308.11499     -928.4919       1689.3067      4333.258     
     57170   309.30769     -928.5828       3053.2673      4327.4315    
     57180   305.24821     -928.53505      4065.647       4323.4995    
     57190   302.01583     -928.52292      4412.1799      4322.0723    
     57200   282.48213     -928.06376      4025.7087      4323.3645    
     57210   289.87754     -928.35331      3017.724       4327.1478    
     57220   302.51599     -928.7914       1703.8336      4332.8225    
     57230   287.64405     -928.46258      188.36816      4339.5818    
     57240   282.7656      -928.39999     -1571.803       4346.4739    
     57250   287.32815     -928.59158     -3106.3992      4352.4128    
     57260   264.50431     -928.01336     -3899.7239      4356.4492    
     57270   271.83616     -928.26399     -4164.9176      4358.0547    
     57280   307.32377     -929.3016      -3972.7809      4357.0493    
     57290   293.58508     -928.98234     -3103.7157      4353.5664    
     57300   269.37417     -928.37        -1703.9284      4348.1502    
     57310   296.95532     -929.1895      -193.00363      4341.665     
     57320   315.42881     -929.76248      1254.4916      4335.057     
     57330   281.53544     -928.88914      2545.8711      4329.232     
     57340   263.11998     -928.44625      3386.4219      4324.9772    
     57350   270.88563     -928.73229      3730.2681      4322.813     
     57360   277.33867     -928.99212      3614.9805      4322.9556    
     57370   255.59748     -928.47207      3078.9511      4325.341     
     57380   249.91334     -928.38978      2079.5592      4329.6391    
     57390   272.46069     -929.08153      839.07802      4335.2486    
     57400   291.25767     -929.66606     -480.21878      4341.406     
     57410   271.80035     -929.18178     -1726.1977      4347.2932    
     57420   272.32637     -929.24288     -2881.2898      4352.1186    
     57430   283.00518     -929.58124     -3676.6339      4355.1589    
     57440   269.63713     -929.24858     -3872.7581      4355.9152    
     57450   261.98692     -929.0679      -3545.7571      4354.2505    
     57460   267.72007     -929.24769     -2732.5012      4350.3677    
     57470   258.87711     -929.0048      -1428.0409      4344.7842    
     57480   252.10624     -928.79461      117.83967      4338.3119    
     57490   265.14431     -929.1038       1606.2598      4331.9087    
     57500   278.67485     -929.39661      2906.3409      4326.501     
     57510   281.21712     -929.36422      3843.5546      4322.8903    
     57520   272.85995     -929.01935      4217.2385      4321.6493    
     57530   276.66978     -929.00596      3886.9154      4323.0061    
     57540   287.29042     -929.17228      2974.4921      4326.7717    
     57550   280.24966     -928.84497      1698.1809      4332.4014    
     57560   273.83807     -928.53663      156.22053      4339.1122    
     57570   287.76992     -928.78905     -1509.514       4345.9467    
     57580   286.77787     -928.62734     -2819.0411      4351.8811    
     57590   272.94729     -928.12326     -3623.3513      4356.0852    
     57600   289.36155     -928.47079     -4061.0288      4358.0287    
     57610   303.77486     -928.77316     -3993.6184      4357.4319    
     57620   281.49919     -928.07548     -3221.2785      4354.3449    
     57630   276.82936     -927.87704     -1993.1312      4349.2411    
     57640   313.32538     -928.81696     -575.97453      4342.8833    
     57650   304.66084     -928.50142      1109.3076      4336.1765    
     57660   288.24581     -927.97759      2639.596       4330.1547    
     57670   315.91968     -928.67938      3631.383       4325.7524    
     57680   329.55687     -929.00121      4141.777       4323.5941    
     57690   308.47234     -928.38172      4084.7554      4323.9954    
     57700   296.76608     -928.03815      3322.6503      4326.9214    
     57710   294.09476     -927.94709      2025.1508      4331.9174    
     57720   292.44304     -927.87761      502.50315      4338.2017    
     57730   307.78688     -928.27244     -1064.5994      4344.8349    
     57740   291.26141     -927.77626     -2409.5498      4350.845     
     57750   280.88372     -927.44698     -3519.7023      4355.3718    
     57760   300.40713     -927.94278     -4102.6341      4357.717     
     57770   301.32944     -927.92244     -3865.242       4357.5169    
     57780   304.59693     -927.97228     -3058.0204      4354.8993    
     57790   335.30818     -928.78891     -1936.0921      4350.3576    
     57800   328.52591     -928.57437     -481.6216       4344.6064    
     57810   313.23774     -928.13554      954.58934      4338.5437    
     57820   320.47864     -928.32901      2095.7796      4333.058     
     57830   314.02243     -928.15043      2940.2786      4328.8656    
     57840   305.83366     -927.93453      3369.9637      4326.4876    
     57850   302.5665      -927.86443      3340.5328      4326.1932    
     57860   296.87736     -927.7334       2884.3575      4327.9722    
     57870   300.34749     -927.86005      2077.1143      4331.5554    
     57880   300.72329     -927.90326      1033.8694      4336.4545    
     57890   287.38948     -927.56191     -163.55865      4342.029     
     57900   308.31912     -928.16933     -1515.6605      4347.526     
     57910   320.85904     -928.54998     -2595.048       4352.1157    
     57920   303.39016     -928.11136     -3187.4613      4355.117     
     57930   298.35729     -928.02898     -3411.3087      4356.135     
     57940   313.89213     -928.53489     -3272.9987      4355.016     
     57950   294.31888     -928.08011     -2521.4629      4351.8573    
     57960   292.20587     -928.11463     -1435.8788      4347.1116    
     57970   310.94912     -928.73668     -183.25359      4341.4559    
     57980   304.95614     -928.68107      1152.694       4335.6753    
     57990   288.83077     -928.34423      2315.3807      4330.595     
     58000   287.05919     -928.40161      3098.1691      4326.932     
     58010   294.18305     -928.70556      3469.8609      4325.1783    
     58020   295.35451     -928.84743      3374.3163      4325.5693    
     58030   269.52309     -928.23087      2838.8171      4328.0593    
     58040   265.11007     -928.18707      1823.915       4332.3266    
     58050   301.85596     -929.27384      437.91149      4337.7538    
     58060   293.62979     -929.10409     -834.95345      4343.5082    
     58070   258.45285     -928.16722     -1911.0009      4348.7929    
     58080   284.90195     -928.92427     -2980.4318      4352.9069    
     58090   309.35463     -929.62141     -3646.3176      4355.1845    
     58100   272.74591     -928.62381     -3556.7475      4355.2095    
     58110   256.06988     -928.17113     -3048.9023      4353.0024    
     58120   281.52078     -928.87385     -2243.3272      4348.8686    
     58130   279.53061     -928.79854     -930.29054      4343.3263    
     58140   272.0729      -928.55667      606.06111      4337.1841    
     58150   287.74945     -928.93918      1981.1015      4331.3861    
     58160   299.95275     -929.21196      3087.8469      4326.7912    
     58170   289.32477     -928.84811      3827.756       4324.0916    
     58180   287.90191     -928.74132      3927.3642      4323.7426    
     58190   299.54904     -928.99453      3396.6255      4325.8245    
     58200   292.99388     -928.73996      2404.6669      4330.0362    
     58210   284.40997     -928.42474      1060.9177      4335.7845    
     58220   288.77048     -928.45645     -462.45115      4342.2502    
     58230   284.72547     -928.24016     -1884.9412      4348.4954    
     58240   278.58452     -927.957       -3093.5016      4353.6204    
     58250   292.03477     -928.21153     -3945.0688      4356.8489    
     58260   289.13737     -928.01401     -4080.4153      4357.641     
     58270   290.53867     -927.94926     -3557.0603      4355.8832    
     58280   306.74234     -928.30706     -2499.3734      4351.8835    
     58290   311.73959     -928.36827     -1060.833       4346.2931    
     58300   319.09045     -928.51297      428.57998      4339.9965    
     58310   334.60233     -928.90388      1811.7771      4333.9212    
     58320   309.0065      -928.17143      3084.4598      4328.9408    
     58330   297.37669     -927.83756      3741.5386      4325.8282    
     58340   317.289       -928.38811      3681.2988      4325.0023    
     58350   300.1555      -927.91937      3301.3694      4326.4699    
     58360   286.62751     -927.55268      2512.8473      4330.0134    
     58370   318.56939     -928.44795      1153.7423      4335.1516    
     58380   299.80496     -927.93373     -165.5288       4341.0901    
     58390   273.04367     -927.19102     -1366.5158      4347.0087    
     58400   298.65919     -927.89149     -2548.524       4352.1369    
     58410   318.02732     -928.41552     -3331.2296      4355.7343    
     58420   315.268       -928.33565     -3559.3298      4357.2904    
     58430   326.71302     -928.66805     -3445.1564      4356.6184    
     58440   303.39086     -928.04946     -2841.6871      4353.7771    
     58450   288.11968     -927.65591     -1838.4139      4349.123     
     58460   320.43109     -928.58338     -613.79456      4343.265     
     58470   308.87242     -928.29475      912.09739      4336.9757    
     58480   285.15086     -927.66405      2344.8551      4331.1915    
     58490   317.71329     -928.59624      3247.5335      4326.7908    
     58500   315.05831     -928.56279      3814.4766      4324.3672    
     58510   276.12729     -927.52699      3962.4889      4324.295     
     58520   301.5208      -928.28088      3264.1056      4326.6709    
     58530   306.99807     -928.48545      2099.696       4331.1217    
     58540   285.4778      -927.93934      731.77787      4336.9635    
     58550   288.94613     -928.07786     -724.56579      4343.3647    
     58560   303.50434     -928.51822     -2047.5183      4349.4238    
     58570   302.24242     -928.51904     -3019.9097      4354.3056    
     58580   312.17715     -928.83936     -3718.8019      4357.3599    
     58590   307.2614      -928.76094     -3960.3418      4358.1198    
     58600   297.57187     -928.56178     -3674.8916      4356.3956    
     58610   287.77459     -928.36629     -2862.3928      4352.3316    
     58620   261.75167     -927.70999     -1573.9401      4346.4115    
     58630   271.11839     -928.0182      -67.941722      4339.4146    
     58640   291.80084     -928.62601      1614.942       4332.2793    
     58650   282.06614     -928.37737      3332.3892      4326.0593    
     58660   290.21523     -928.61915      4477.76        4321.8101    
     58670   320.36602     -929.48097      4778.6603      4320.2636    
     58680   300.53676     -928.97242      4462.7137      4321.6701    
     58690   280.36747     -928.46252      3467.1134      4325.8836    
     58700   302.95325     -929.14118      1817.2294      4332.3405    
     58710   294.71762     -928.96164     -50.388632      4340.0788    
     58720   267.0748      -928.2322      -1891.9657      4347.9563    
     58730   267.05479     -928.25322     -3552.1991      4354.8089    
     58740   277.67978     -928.55799     -4717.2648      4359.5654    
     58750   281.23653     -928.66401     -5134.4188      4361.4434    
     58760   271.87155     -928.4111      -4761.096       4360.1149    
     58770   274.32587     -928.47992     -3690.0076      4355.752     
     58780   301.30217     -929.21639     -2076.1004      4348.9781    
     58790   299.03353     -929.12492     -51.211649      4340.7785    
     58800   274.68788     -928.40372      1977.1727      4332.3949    
     58810   285.47303     -928.63678      3565.5051      4325.081     
     58820   306.88543     -929.14513      4655.1933      4319.8498    
     58830   287.81789     -928.52519      5325.1523      4317.4269    
     58840   274.45822     -928.06737      5251.7256      4318.2683    
     58850   303.28109     -928.77205      4201.6957      4322.3878    
     58860   310.83867     -928.87313      2563.9629      4329.2318    
     58870   288.57093     -928.14539      675.41571      4337.8594    
     58880   291.79829     -928.11776     -1472.589       4347.1182    
     58890   307.85829     -928.43011     -3581.1146      4355.6698    
     58900   292.61598     -927.87406     -5081.4922      4362.173     
     58910   292.82464     -927.7633      -5839.3268      4365.6088    
     58920   304.62226     -927.98834     -5682.3323      4365.423     
     58930   304.16176     -927.89227     -4644.6843      4361.6328    
     58940   311.99693     -928.04197     -3073.4534      4354.8129    
     58950   322.51966     -928.27387     -1119.0629      4345.9082    
     58960   310.79848     -927.89192      1223.9508      4336.1343    
     58970   308.68363     -927.77633      3479.3436      4326.9367    
     58980   332.07753     -928.37375      5145.9461      4319.7196    
     58990   316.51081     -927.90814      6107.5361      4315.5599    
     59000   307.04721     -927.63756      6063.7987      4315.101     
     59010   312.57885     -927.80326      5136.2756      4318.4037    
     59020   294.75154     -927.32983      3701.698       4325.0045    
     59030   301.66749     -927.54054      1627.5226      4334.0784    
     59040   330.75096     -928.35873     -764.1054       4344.4005    
     59050   323.17713     -928.15856     -2948.1627      4354.5102    
     59060   308.08608     -927.75254     -4791.1717      4363.0016    
     59070   328.18249     -928.33651     -6139.3341      4368.6455    
     59080   322.7425      -928.23917     -6573.2933      4370.5209    
     59090   298.43651     -927.64376     -6124.4721      4368.2559    
     59100   299.96732     -927.77979     -4968.6224      4362.0452    
     59110   310.96731     -928.18717     -3000.2647      4352.5725    
     59120   293.94517     -927.80846     -259.79592      4341.0511    
     59130   278.99626     -927.46094      2639.9698      4329.1646    
     59140   286.9991      -927.72597      5104.9921      4318.7107    
     59150   307.63844     -928.33955      6844.9793      4311.2396    
     59160   312.38489     -928.53139      7794.2972      4307.8818    
     59170   308.72591     -928.52062      7614.0254      4309.2817    
     59180   311.06868     -928.70287      6086.9235      4315.4167    
     59190   319.15937     -929.06119      3505.4465      4325.4621    
     59200   294.52639     -928.50105      546.71238      4337.9333    
     59210   279.64302     -928.17747     -2445.7297      4351.0302    
     59220   294.69712     -928.65579     -5230.1364      4362.8601    
     59230   296.60461     -928.75942     -7346.1146      4371.6152    
     59240   265.46398     -927.94368     -8311.604       4375.8775    
     59250   268.4389      -928.07936     -8092.3775      4374.927     
     59260   292.80305     -928.81884     -6724.1933      4368.8163    
     59270   282.23179     -928.58524     -4293.0346      4358.3594    
     59280   275.68857     -928.43964     -1261.1353      4345.0501    
     59290   283.82887     -928.66405      2007.8098      4330.7845    
     59300   282.80423     -928.59816      5144.6722      4317.6069    
     59310   283.56155     -928.5641       7605.0317      4307.4601    
     59320   286.54465     -928.59711      9033.6673      4301.8791    
     59330   299.75878     -928.94036      9147.5474      4301.7797    
     59340   311.42853     -929.27398      7884.9282      4307.3079    
     59350   304.31669     -929.10822      5418.6808      4317.7914    
     59360   290.69022     -928.75442      2027.9674      4331.8058    
     59370   289.56792     -928.71601     -1798.8648      4347.3104    
     59380   263.88766     -927.95539     -5231.9242      4361.9396    
     59390   261.85289     -927.82616     -7880.144       4373.4784    
     59400   294.36527     -928.6558      -9448.2564      4380.1649    
     59410   286.8259      -928.40081     -9450.6201      4380.9368    
     59420   262.63065     -927.71529     -8002.3537      4375.719     
     59430   293.85134     -928.57724     -5669.1747      4365.3719    
     59440   320.66614     -929.30403     -2568.513       4351.3774    
     59450   287.58329     -928.34675      1182.9763      4335.7151    
     59460   291.4401      -928.38599      4716.8928      4320.7115    
     59470   311.76263     -928.86029      7530.2219      4308.5546    
     59480   302.03848     -928.51119      9311.3927      4300.9698    
     59490   286.97646     -928.04602      9778.1639      4299.0488    
     59500   300.92947     -928.41959      8724.9683      4303.0969    
     59510   297.65656     -928.33353      6434.4096      4312.5384    
     59520   282.60603     -927.91624      3270.5091      4326.0407    
     59530   288.83372     -928.05791     -346.62147      4341.7005    
     59540   294.85401     -928.15099     -3790.8244      4357.2917    
     59550   311.34318     -928.5081      -6743.5336      4370.6195    
     59560   325.22783     -928.79547     -8832.935       4379.7687    
     59570   306.31128     -928.2065      -9617.002       4383.3717    
     59580   288.96026     -927.70231     -9030.3344      4380.8915    
     59590   304.08027     -928.12472     -7325.1507      4372.682     
     59600   300.48809     -928.03049     -4583.255       4359.8521    
     59610   281.14476     -927.47699     -980.66892      4344.1766    
     59620   306.77207     -928.12934      2865.9607      4327.931     
     59630   316.57607     -928.30464      6388.3078      4313.507     
     59640   297.05722     -927.66172      8985.6906      4303.043     
     59650   303.45049     -927.75929      10179.164      4298.0829    
     59660   324.29726     -928.29278      9896.815       4299.3343    
     59670   322.24986     -928.22968      8220.1237      4306.6332    
     59680   314.62878     -928.033        5275.3434      4318.9819    
     59690   316.67908     -928.09288      1522.4333      4334.6118    
     59700   312.81598     -927.95643     -2288.8975      4351.2325    
     59710   311.80781     -927.87098     -5659.0521      4366.4526    
     59720   312.81378     -927.83245     -8306.1494      4378.1122    
     59730   316.36624     -927.88452     -9900.669       4384.5055    
     59740   312.32451     -927.76928     -10006.197      4384.6252    
     59750   290.95716     -927.21361     -8554.9625      4378.431     
     59760   301.94943     -927.57275     -5989.4786      4366.88      
     59770   321.79162     -928.16891     -2593.4761      4351.6641    
     59780   302.24766     -927.64561      1319.3994      4334.9803    
     59790   297.28158     -927.49558      5058.3123      4319.2741    
     59800   311.27149     -927.8562       8064.2131      4306.8256    
     59810   321.96663     -928.14636      9869.8359      4299.4084    
     59820   317.843       -928.07532      10281.109      4298.0557    
     59830   312.75629     -928.03241      9189.7705      4302.962     
     59840   320.13531     -928.37378      6719.2629      4313.4438    
     59850   338.40537     -929.03677      3153.5395      4327.9891    
     59860   310.62418     -928.41195     -783.58471      4344.4215    
     59870   269.36102     -927.3622      -4510.6545      4360.2904    
     59880   290.17208     -928.00107     -7672.7991      4373.2351    
     59890   290.23204     -928.06445     -9565.3103      4381.2733    
     59900   262.83071     -927.37708     -9866.4355      4383.2308    
     59910   288.79014     -928.19106     -8848.4363      4378.9512    
     59920   321.80981     -929.22564     -6650.6604      4369.1622    
     59930   288.90572     -928.42548     -3390.5707      4355.3582    
     59940   278.9768      -928.22415      243.63586      4339.646     
     59950   306.00039     -929.00872      3743.5685      4324.3246    
     59960   301.33823     -928.89058      6811.7513      4311.5474    
     59970   285.19017     -928.4497       8878.7585      4303.1178    
     59980   296.18329     -928.78234      9453.7814      4300.1876    
     59990   293.21959     -928.7565       8691.4527      4303.0339    
     60000   276.02982     -928.3518       6755.1749      4311.1349    
     60010   276.28627     -928.42113      3780.3098      4323.2681    
     60020   284.49259     -928.67869      316.43701      4337.5989    
     60030   279.7871      -928.53776     -2925.6935      4351.9889    
     60040   280.23123     -928.5091      -5591.3163      4364.4073    
     60050   285.64627     -928.60485     -7482.0807      4373.1826    
     60060   290.77887     -928.69994     -8415.3255      4377.15      
     60070   285.07636     -928.51215     -8111.1635      4375.7911    
     60080   294.27313     -928.75202     -6641.6815      4369.3797    
     60090   303.79306     -928.99819     -4271.2668      4358.9339    
     60100   287.63032     -928.51332     -1334.9601      4346.025     
     60110   278.61247     -928.19509      1776.0668      4332.5362    
     60120   294.75771     -928.53728      4638.7449      4320.397     
     60130   297.63402     -928.48666      6811.6153      4311.3207    
     60140   301.26124     -928.4595       7847.9928      4306.5433    
     60150   287.69642     -927.97045      7847.0207      4306.6195    
     60160   277.86876     -927.60197      6859.1114      4311.4726    
     60170   313.46392     -928.49175      4812.4753      4320.4313    
     60180   322.49075     -928.62925      2111.0351      4332.2158    
     60190   288.86732     -927.58305     -804.2695       4345.148     
     60200   308.12894     -927.99627     -3721.8267      4357.3985    
     60210   335.20992     -928.6195      -6001.9176      4367.1666    
     60220   301.02942     -927.5699      -7162.1786      4373.0607    
     60230   307.56962     -927.68952     -7471.477       4374.3743    
     60240   337.91706     -928.50174     -6822.5961      4370.9911    
     60250   314.68588     -927.85811     -4997.4921      4363.4304    
     60260   307.81211     -927.682       -2579.7613      4352.901     
     60270   305.60834     -927.62489      81.974829      4340.9795    
     60280   303.47524     -927.55464      2624.4514      4329.3434    
     60290   299.9835      -927.43527      4798.1879      4319.5502    
     60300   301.79545     -927.46358      6430.8616      4312.8841    
     60310   304.66598     -927.53306      7282.2377      4310.2653    
     60320   330.28269     -928.2599       6980.2582      4312.1153    
     60330   335.14587     -928.44132      5643.9122      4318.1888    
     60340   315.01922     -927.94568      3482.3221      4327.6236    
     60350   327.58353     -928.35551      710.94538      4339.0574    
     60360   339.46268     -928.74138     -2191.2653      4350.7705    
     60370   305.74786     -927.85528     -4680.368       4360.9655    
     60380   274.56311     -927.02574     -6391.9325      4368.1042    
     60390   286.48169     -927.39015     -7156.1306      4371.1461    
     60400   301.05546     -927.83852     -6743.5672      4369.6813    
     60410   303.29433     -927.95671     -5286.6769      4364.0436    
     60420   304.38824     -928.04374     -3176.4017      4355.2176    
     60430   326.00849     -928.69547     -838.47523      4344.5782    
     60440   323.9522      -928.68565      1684.5466      4333.6317    
     60450   294.8968      -927.9145       4072.9673      4323.9371    
     60460   304.2477      -928.20286      5721.3616      4316.9063    
     60470   313.91432     -928.51045      6410.8329      4313.4837    
     60480   286.53981     -927.80185      6212.4411      4314.029     
     60490   287.09529     -927.87256      5116.064       4318.3561    
     60500   308.87262     -928.53239      3338.7261      4325.7552    
     60510   292.43658     -928.12265      1200.3632      4335.1145    
     60520   282.14606     -927.86335     -1103.6556      4345.0954    
     60530   306.63834     -928.55157     -3247.5274      4354.2666    
     60540   315.36939     -928.79793     -4778.7179      4361.3128    
     60550   305.97499     -928.55261     -5589.1221      4365.2922    
     60560   280.5881      -927.87199     -5685.7005      4365.7297    
     60570   284.07367     -927.99581     -5105.5941      4362.6113    
     60580   312.48689     -928.81345     -3731.9333      4356.3699    
     60590   309.92795     -928.77127     -1652.609       4347.9255    
     60600   292.554       -928.30862      599.93272      4338.596     
     60610   305.63672     -928.68042      2523.6455      4329.7763    
     60620   291.30099     -928.2833       4100.2679      4322.6506    
     60630   272.58026     -927.75931      5142.4922      4318.149     
     60640   292.55724     -928.30918      5362.9233      4316.8522    
     60650   300.20605     -928.52154      4846.2811      4318.8554    
     60660   280.52033     -927.97836      3741.2598      4323.8104    
     60670   290.18628     -928.24433      2089.617       4331.0083    
     60680   303.53403     -928.5988       202.97901      4339.4239    
     60690   297.79967     -928.41207     -1612.3223      4347.8886    
     60700   306.35464     -928.61561     -3256.9252      4355.2652    
     60710   298.59113     -928.36323     -4417.6113      4360.5442    
     60720   308.54335     -928.60857     -5047.8438      4363.0093    
     60730   317.70021     -928.84193     -4927.2955      4362.3041    
     60740   301.59615     -928.38623     -4020.3146      4358.5449    
     60750   291.72404     -928.10444     -2669.3396      4352.3278    
     60760   302.52902     -928.38497     -1100.6271      4344.527     
     60770   280.77602     -927.73812      840.32542      4336.1638    
     60780   279.56609     -927.63092      2697.7375      4328.432     
     60790   300.02637     -928.08226      4035.0556      4322.4493    
     60800   290.5641      -927.66813      4940.3501      4319.0238    
     60810   302.30391     -927.82444      5243.3485      4318.6707    
     60820   340.30527     -928.69197      4701.1254      4321.5309    
     60830   334.43759     -928.35258      3478.3592      4327.2565    
     60840   314.12487     -927.64725      1652.684       4335.0754    
     60850   326.55121     -927.86587     -486.39815      4343.855     
     60860   331.53494     -927.88614     -2412.4269      4352.2799    
     60870   325.91995     -927.63231     -3941.497       4359.1466    
     60880   322.17947     -927.4543      -4974.5429      4363.4991    
     60890   313.31016     -927.15785     -5266.43        4364.7125    
     60900   321.40524     -927.35465     -4802.1965      4362.6282    
     60910   336.54034     -927.76766     -3662.1016      4357.57      
     60920   314.8727      -927.17492     -1905.2171      4350.2944    
     60930   308.11378     -926.99901      27.358111      4341.9121    
     60940   339.15442     -927.87352      1818.1302      4333.6331    
     60950   338.38512     -927.88032      3508.3886      4326.5768    
     60960   303.80482     -926.9632       4817.9754      4321.7606    
     60970   320.45307     -927.48386      5193.3968      4319.9355    
     60980   340.23699     -928.12171      4729.7795      4321.3104    
     60990   315.37915     -927.54426      3752.4735      4325.5953    
     61000   316.96996     -927.71129      2211.5094      4332.1633    
     61010   329.53369     -928.19099      359.84814      4340.0624    
     61020   319.53984     -928.04622     -1513.1703      4348.145     
     61030   307.5978      -927.83865     -3191.7517      4355.2418    
     61040   304.95545     -927.87949     -4401.5018      4360.3102    
     61050   311.1014      -928.16162     -5019.831       4362.5979    
     61060   311.12707     -928.2791      -4951.754       4361.7334    
     61070   276.62121     -927.42761     -3989.4611      4357.7991    
     61080   274.36027     -927.44567     -2456.2942      4351.415     
     61090   323.30409     -928.87191     -711.7908       4343.5554    
     61100   331.18526     -929.15732      1297.3393      4335.3412    
     61110   294.68268     -928.20209      3203.4448      4328.0134    
     61120   304.23938     -928.51736      4282.9792      4322.7029    
     61130   308.4061      -928.68772      4611.1834      4320.0627    
     61140   267.79025     -927.61156      4491.2552      4320.2894    
     61150   270.44906     -927.72607      3783.2967      4323.2786    
     61160   304.94675     -928.71664      2556.6424      4328.5831    
     61170   298.36904     -928.56137      1077.914       4335.4494    
     61180   283.05433     -928.15337     -569.15932      4342.9541    
     61190   301.04984     -928.65821     -2209.4797      4350.0698    
     61200   304.94691     -928.76627     -3427.6956      4355.7875    
     61210   293.62592     -928.45369     -4203.8594      4359.3388    
     61220   304.45402     -928.76218     -4518.2551      4360.24      
     61230   306.65998     -928.84032     -4114.2089      4358.323     
     61240   293.13646     -928.48863     -3081.0231      4353.8586    
     61250   283.70318     -928.24682     -1690.6539      4347.5077    
     61260   281.17591     -928.18338     -101.04976      4340.1576    
     61270   287.53384     -928.35008      1508.7928      4332.8056    
     61280   290.82718     -928.41892      3011.9933      4326.4506    
     61290   270.20778     -927.81285      4222.9855      4322.0085    
     61300   283.43608     -928.13923      4698.3877      4320.1855    
     61310   307.52945     -928.75854      4503.0715      4321.2641    
     61320   309.98907     -928.77729      3733.7564      4325.1144    
     61330   304.61735     -928.57856      2348.5528      4331.2492    
     61340   315.92669     -928.83536      502.84936      4338.8092    
     61350   307.65119     -928.53604     -1297.4874      4346.6657    
     61360   291.88913     -928.02011     -2838.0877      4353.6959    
     61370   301.00187     -928.18189     -4125.2533      4358.9225    
     61380   301.46161     -928.09273     -4826.2708      4361.5527    
     61390   298.28898     -927.90036     -4729.7585      4361.1613    
     61400   303.54351     -927.93803     -3886.6296      4357.8246    
     61410   308.92841     -927.97029     -2575.7439      4352.0826    
     61420   306.24889     -927.77163     -957.7067       4344.778     
     61430   309.44912     -927.72879      861.91004      4336.9383    
     61440   310.13146     -927.6114       2739.7821      4329.7032    
     61450   320.76501     -927.77465      4163.7233      4324.207     
     61460   325.20573     -927.78289      4880.3754      4321.3059    
     61470   328.57104     -927.79021      4859.6352      4321.423     
     61480   329.64408     -927.76371      4176.2841      4324.5358    
     61490   336.1593      -927.9149       2837.7711      4330.2098    
     61500   327.55695     -927.66468      1123.1497      4337.6258    
     61510   328.44331     -927.68958     -807.91975      4345.7158    
     61520   324.96839     -927.60013     -2623.2619      4353.2835    
     61530   317.43174     -927.40698     -4101.364       4359.1907    
     61540   307.30827     -927.15204     -4929.0536      4362.5197    
     61550   304.45569     -927.11012     -5024.6124      4362.7538    
     61560   310.52718     -927.32691     -4357.5744      4359.8504    
     61570   320.53668     -927.66364     -2995.1151      4354.2503    
     61580   318.75837     -927.67865     -1130.8075      4346.8296    
     61590   326.8218      -927.96738      833.51207      4338.7585    
     61600   352.40189     -928.75478      2593.8865      4331.2599    
     61610   334.29424     -928.34857      3984.8917      4325.4184    
     61620   307.39409     -927.70243      4631.7964      4322.0613    
     61630   314.44713     -928.00195      4452.0996      4321.5653    
     61640   303.11756     -927.7899       3848.8808      4323.8269    
     61650   277.51332     -927.16446      2901.1519      4328.4654    
     61660   281.21131     -927.32664      1438.566       4334.8771    
     61670   316.37574     -928.34409     -374.80173      4342.155     
     61680   332.93302     -928.8403      -2010.5594      4349.1895    
     61690   306.18246     -928.13432     -3119.543       4354.9683    
     61700   290.65223     -927.73231     -3867.1812      4358.7791    
     61710   320.82072     -928.6002      -4370.7876      4360.1429    
     61720   311.67178     -928.38595     -4122.0618      4358.7815    
     61730   283.49426     -927.64403     -3082.1374      4354.8699    
     61740   310.08355     -928.41739     -1795.8636      4349.0521    
     61750   323.61067     -928.82825     -394.91092      4342.1504    
     61760   285.93529     -927.81282      1161.7761      4335.0593    
     61770   286.16868     -927.83743      2646.3713      4328.7406    
     61780   313.62949     -928.61222      3784.4265      4324.0975    
     61790   303.6494      -928.35345      4384.8701      4321.8142    
     61800   285.47761     -927.87344      4339.6803      4322.2424    
     61810   293.3739      -928.11831      3602.896       4325.3396    
     61820   309.65869     -928.59596      2270.7715      4330.6468    
     61830   301.62696     -928.39814      689.74464      4337.3506    
     61840   284.42478     -927.93721     -928.84543      4344.472     
     61850   299.97969     -928.37623     -2459.3602      4350.9968    
     61860   306.98911     -928.57427     -3547.6561      4355.9792    
     61870   300.81777     -928.41304     -4133.7959      4358.7324    
     61880   288.09944     -928.07514     -4133.6087      4358.896     
     61890   300.54781     -928.44035     -3573.5892      4356.4787    
     61900   308.74141     -928.69093     -2546.9143      4351.8471    
     61910   301.84243     -928.52574     -1262.7379      4345.654     
     61920   294.38865     -928.34223      217.45554      4338.7195    
     61930   292.94347     -928.31896      1810.6664      4331.9737    
     61940   283.37065     -928.06175      3272.9147      4326.3981    
     61950   281.8614      -928.02261      4133.9548      4322.866     
     61960   294.61265     -928.37775      4269.347       4321.8912    
     61970   309.58582     -928.7994       3871.6588      4323.5556    
     61980   301.19793     -928.58002      3100.4754      4327.6143    
     61990   289.48011     -928.26936      1783.1567      4333.5737    
     62000   303.42888     -928.66478     -57.138817      4340.6098    
     62010   303.57644     -928.66956     -1792.4473      4347.6039    
     62020   287.62325     -928.22309     -3060.0812      4353.4807    
     62030   291.01427     -928.31105     -3967.7636      4357.4295    
     62040   290.07378     -928.27769     -4421.7016      4358.8834    
     62050   277.0567      -927.9084      -4170.983       4357.5767    
     62060   285.54401     -928.13039     -3196.3723      4353.6833    
     62070   299.18881     -928.48267     -1673.5234      4347.8275    
     62080   302.85167     -928.54429      93.741679      4340.9702    
     62090   316.51295     -928.87363      1702.3203      4334.2073    
     62100   317.82716     -928.85772      3007.1159      4328.5377    
     62110   302.04808     -928.37314      3884.9634      4324.7584    
     62120   300.13807     -928.27935      4111.1713      4323.3897    
     62130   309.62901     -928.50662      3615.1456      4324.5532    
     62140   287.18777     -927.84888      2744.6085      4327.9549    
     62150   284.65702     -927.74024      1534.3662      4333.0468    
     62160   287.31619     -927.75959      199.55835      4339.0846    
     62170   282.40796     -927.55247     -1066.625       4345.2428    
     62180   305.53251     -928.10744     -2342.8249      4350.7152    
     62190   333.58429     -928.79027     -3295.0855      4354.7166    
     62200   314.75178     -928.18345     -3608.2175      4356.6646    
     62210   297.8953      -927.64964     -3421.5506      4356.3561    
     62220   316.80279     -928.11387     -2861.635       4353.9112    
     62230   327.1067      -928.34376     -1864.0095      4349.7006    
     62240   315.91362     -927.98685     -557.59623      4344.3592    
     62250   318.48025     -928.0191       692.96285      4338.696     
     62260   326.46523     -928.20778      1798.7916      4333.4939    
     62270   310.25926     -927.73486      2757.6973      4329.4415    
     62280   298.34117     -927.38884      3319.8912      4327.1145    
     62290   317.7136      -927.91785      3264.0091      4326.84      
     62300   323.07041     -928.0702       2804.5769      4328.5887    
     62310   286.40192     -927.06476      2106.2227      4332.0803    
     62320   293.63872     -927.27647      901.39402      4336.8584    
     62330   325.88742     -928.17904     -477.40463      4342.1872    
     62340   312.97464     -927.83421     -1476.1844      4347.232     
     62350   299.93249     -927.49263     -2133.1714      4351.36      
     62360   339.01173     -928.61178     -2712.8644      4354.1388    
     62370   345.21673     -928.85022     -3008.9683      4355.2182    
     62380   309.84867     -927.96679     -2898.1533      4354.4205    
     62390   296.71289     -927.71552     -2394.6853      4351.8215    
     62400   306.94844     -928.12618     -1557.5528      4347.7453    
     62410   306.59264     -928.25449     -528.76695      4342.7211    
     62420   296.27646     -928.10885      585.17654      4337.3954    
     62430   282.0734      -927.84288      1761.6656      4332.4693    
     62440   291.16416     -928.20947      2690.879       4328.657     
     62450   301.95004     -928.61998      3186.8833      4326.5214    
     62460   278.43311     -928.06622      3246.2287      4326.3649    
     62470   284.32893     -928.31193      2776.0622      4328.2125    
     62480   316.27697     -929.27723      1894.9209      4331.7734    
     62490   297.50097     -928.82949      951.39093      4336.5193    
     62500   280.5391      -928.41589     -241.10542      4341.8469    
     62510   301.51171     -929.04123     -1668.8936      4347.0061    
     62520   294.7412      -928.88811     -2733.7548      4351.131     
     62530   260.99882     -927.97408     -3184.1561      4353.562     
     62540   270.53237     -928.24799     -3284.9404      4353.998     
     62550   298.34434     -929.02062     -3014.8772      4352.3813    
     62560   287.39081     -928.71374     -2145.1306      4348.9051    
     62570   271.30915     -928.25746     -882.91517      4344.1152    
     62580   293.25323     -928.84396      370.08152      4338.7909    
     62590   311.37893     -929.31586      1538.5198      4333.7191    
     62600   294.11413     -928.80581      2500.5394      4329.6243    
     62610   291.0694      -928.69355      2951.5564      4327.0819    
     62620   284.70516     -928.48732      3039.7364      4326.3765    
     62630   274.30523     -928.16601      2820.5387      4327.5603    
     62640   279.59758     -928.27244      2191.3325      4330.488     
     62650   294.45898     -928.63454      1185.5236      4334.768     
     62660   286.21191     -928.34608      45.552704      4339.7871    
     62670   290.7112      -928.40573     -1137.6655      4344.8323    
     62680   298.1297      -928.53826     -2094.0691      4349.1747    
     62690   293.2209      -928.32791     -2682.7585      4352.216     
     62700   298.90312     -928.41397     -2964.0039      4353.58      
     62710   315.52092     -928.80864     -2917.2575      4353.0901    
     62720   297.79654     -928.25915     -2297.63        4350.7967    
     62730   291.36496     -928.03092     -1366.6329      4347.0805    
     62740   312.3796      -928.56359     -358.95921      4342.5221    
     62750   300.75264     -928.19145      733.60502      4337.7624    
     62760   289.12841     -927.82313      1694.5942      4333.4744    
     62770   311.85982     -928.40934      2374.605       4330.2485    
     62780   318.27471     -928.54958      2829.8432      4328.51      
     62790   298.59023     -927.97938      2894.0969      4328.529     
     62800   294.57299     -927.85184      2376.5114      4330.3318    
     62810   303.11315     -928.075        1515.9495      4333.6077    
     62820   293.95497     -927.80651      613.42176      4337.8387    
     62830   298.26619     -927.9114      -452.73998      4342.4485    
     62840   304.07972     -928.05593     -1417.9294      4346.784     
     62850   306.31642     -928.10398     -2054.3247      4350.2476    
     62860   313.66122     -928.29984     -2400.2085      4352.4341    
     62870   329.09469     -928.73205     -2595.2939      4353.115     
     62880   326.93547     -928.69202     -2509.8639      4352.1759    
     62890   306.80621     -928.16422     -2019.8556      4349.6805    
     62900   285.7393      -927.6073      -1179.6767      4345.94      
     62910   286.84447     -927.65483     -254.70148      4341.4724    
     62920   302.06642     -928.08487      667.90837      4336.858     
     62930   303.34063     -928.12434      1678.7679      4332.6817    
     62940   294.35307     -927.87638      2601.9309      4329.5663    
     62950   316.17355     -928.48706      2965.1702      4328.0563    
     62960   312.19661     -928.38996      2868.64        4328.3839    
     62970   288.10128     -927.7394       2454.3938      4330.4956    
     62980   301.22201     -928.1205       1669.0186      4334.1307    
     62990   324.86782     -928.79481      578.32657      4338.8042    
     63000   314.0283      -928.51849     -605.69177      4343.8463    
     63010   294.74463     -928.00922     -1749.9417      4348.5187    
     63020   299.9334      -928.17734     -2709.7699      4352.1038    
     63030   302.87549     -928.28422     -3195.8732      4354.0083    
     63040   289.08187     -927.92941     -3108.2319      4353.9275    
     63050   282.06033     -927.75924     -2610.9599      4351.9078    
     63060   308.74748     -928.52274     -1859.0167      4348.2577    
     63070   309.76905     -928.5759      -727.97644      4343.4654    
     63080   278.18786     -927.72032      639.12303      4338.24      
     63090   295.13416     -928.20297      1724.5025      4333.4112    
     63100   331.37129     -929.22318      2459.7607      4329.6545    
     63110   302.84991     -928.45793      3039.2819      4327.439     
     63120   279.03534     -927.82898      3213.3534      4327.1088    
     63130   299.93601     -928.44328      2807.1429      4328.7613    
     63140   304.21465     -928.60053      2022.4852      4332.1588    
     63150   293.18481     -928.33623      961.20212      4336.8211    
     63160   304.46139     -928.69397     -363.86713      4342.085     
     63170   306.07052     -928.78904     -1648.5253      4347.1366    
     63180   288.47852     -928.35872     -2619.422       4351.1776    
     63190   264.52652     -927.75176     -3171.2205      4353.5956    
     63200   263.69456     -927.7814      -3334.8907      4354.034     
     63210   286.11941     -928.45607     -3020.1697      4352.392     
     63220   296.21348     -928.79268     -2090.5432      4348.8795    
     63230   289.80973     -928.67393     -778.08981      4344.0742    
     63240   300.18119     -929.02204      474.08287      4338.7824    
     63250   308.543       -929.32345      1544.6697      4333.7857    
     63260   286.09501     -928.7734       2497.9777      4329.7606    
     63270   290.49178     -928.97252      3006.8977      4327.2791    
     63280   290.27039     -929.04885      3064.6564      4326.6595    
     63290   275.14366     -928.71169      2656.6513      4327.9369    
     63300   263.84831     -928.4711       1839.7929      4330.8627    
     63310   261.27175     -928.457        822.65626      4334.9423    
     63320   261.17812     -928.49155     -179.03777      4339.5552    
     63330   278.98305     -929.00662     -1155.5034      4344.0715    
     63340   278.12856     -928.98979     -1908.454       4347.8879    
     63350   273.9929      -928.87063     -2398.4523      4350.5264    
     63360   292.30165     -929.36517     -2655.029       4351.671     
     63370   299.10092     -929.5354      -2595.6582      4351.1602    
     63380   277.4642      -928.91305     -2160.485       4349.0341    
     63390   273.83418     -928.78195     -1492.485       4345.5571    
     63400   275.299       -928.77375     -504.35605      4341.1582    
     63410   262.35865     -928.34417      736.80632      4336.4571    
     63420   267.20794     -928.384        1843.0622      4332.2119    
     63430   296.7644      -929.0813       2556.5207      4329.1005    
     63440   302.32009     -929.09505      2952.4358      4327.5746    
     63450   290.34948     -928.62791      2961.1401      4327.88      
     63460   299.08509     -928.74161      2418.2581      4330.0156    
     63470   297.76924     -928.5805       1565.5516      4333.6649    
     63480   288.31955     -928.20448      509.03276      4338.3056    
     63490   284.46271     -927.99045     -634.65347      4343.285     
     63500   295.08028     -928.18173     -1651.6044      4347.8958    
     63510   305.73115     -928.38048     -2437.1058      4351.4981    
     63520   306.84191     -928.32973     -2945.1752      4353.5899    
     63530   301.42891     -928.11575     -3037.2734      4353.8512    
     63540   303.98346     -928.13752     -2683.6743      4352.2174    
     63550   302.46746     -928.05618     -1857.5531      4348.9121    
     63560   291.59357     -927.71967     -788.88194      4344.4428    
     63570   300.34983     -927.92776      291.26704      4339.4707    
     63580   312.26327     -928.22227      1399.5843      4334.6776    
     63590   313.35825     -928.22227      2478.8615      4330.7563    
     63600   304.23958     -927.94664      3212.7544      4328.3667    
     63610   322.30313     -928.43614      3217.475       4327.9478    
     63620   335.71819     -928.8139       2742.8951      4329.5242    
     63630   301.31147     -927.87926      2128.9205      4332.831     
     63640   301.07965     -927.89775      1018.7572      4337.47      
     63650   317.5514      -928.37977     -427.59007      4342.7636    
     63660   293.0518      -927.72382     -1687.942       4347.8346    
     63670   278.9679      -927.35001     -2644.8294      4351.8876    
     63680   313.14704     -928.31375     -3281.6456      4354.3074    
     63690   313.33896     -928.34268     -3348.2652      4354.6947    
     63700   272.54349     -927.23809     -2823.8144      4352.9979    
     63710   289.09028     -927.72004     -2024.2517      4349.5224    
     63720   327.95309     -928.82062     -933.63175      4344.7717    
     63730   309.79368     -928.34407      503.09038      4339.4389    
     63740   306.06781     -928.27322      1744.9201      4334.3953    
     63750   330.01816     -928.98297      2556.1196      4330.4081    
     63760   305.5703      -928.36692      3124.5695      4328.0013    
     63770   284.79649     -927.86006      3242.654       4327.5236    
     63780   305.83483     -928.5256       2768.3324      4329.0491    
     63790   300.77176     -928.47738      1962.3988      4332.3141    
     63800   301.16909     -928.59202      741.21156      4336.8178    
     63810   281.26683     -928.14482     -490.58464      4341.8288    
     63820   260.63527     -927.66406     -1510.7774      4346.5856    
     63830   278.24377     -928.23357     -2386.9654      4350.435     
     63840   303.07516     -929.00913     -2961.3557      4352.8201    
     63850   280.36755     -928.46723     -2960.1399      4353.3828    
     63860   289.21123     -928.80033     -2709.2239      4352.0865    
     63870   307.65057     -929.40891     -2098.7459      4349.0873    
     63880   276.83455     -928.64839     -981.98595      4344.7733    
     63890   266.58005     -928.44213      174.4364       4339.8162    
     63900   288.11248     -929.10718      1126.8513      4334.9287    
     63910   287.18367     -929.14227      2069.5493      4330.7228    
     63920   275.98811     -928.88458      2877.7025      4327.786     
     63930   276.45323     -928.94412      3171.4617      4326.6096    
     63940   271.74389     -928.85217      2914.3983      4327.391     
     63950   277.59887     -929.04562      2180.418       4329.9897    
     63960   283.22183     -929.22375      1187.6718      4333.978     
     63970   272.24503     -928.92928      115.8927       4338.7576    
     63980   267.22345     -928.78382     -993.20069      4343.6644    
     63990   272.39469     -928.90148     -2050.2802      4348.0012    
     64000   261.3254      -928.54466     -2710.9598      4351.1114    
     64010   273.46452     -928.80604     -2945.5604      4352.5597    
     64020   296.32012     -929.32746     -2785.1057      4352.1775    
     64030   291.05316     -929.03488     -2252.6955      4350.0468    
     64040   283.9626      -928.66886     -1410.0906      4346.4868    
     64050   294.35778     -928.76396     -367.44402      4342.014     
     64060   294.97988     -928.57575      757.36172      4337.2738    
     64070   291.82014     -928.29708      1751.2543      4332.9615    
     64080   288.76674     -928.04539      2471.8764      4329.6977    
     64090   289.77114     -927.93444      2865.5471      4327.942     
     64100   302.76453     -928.18083      2926.8787      4327.9559    
     64110   297.49923     -927.94354      2694.8433      4329.8039    
     64120   305.08108     -928.08288      1966.2037      4333.3536    
     64130   333.97216     -928.82657      846.80198      4338.178     
     64140   324.53476     -928.52304     -344.43451      4343.6107    
     64150   302.66457     -927.88896     -1614.5184      4348.905     
     64160   310.4189      -928.08256     -2822.7257      4353.258     
     64170   301.88761     -927.82861     -3499.179       4355.9111    
     64180   284.47001     -927.33243     -3577.6308      4356.4091    
     64190   302.28165     -927.81595     -3249.3801      4354.6574    
     64200   313.80161     -928.12686     -2330.2468      4350.8492    
     64210   299.75557     -927.73132     -893.67052      4345.5414    
     64220   298.35458     -927.68372      638.46511      4339.605     
     64230   317.22781     -928.19506      1956.1211      4333.9854    
     64240   327.85661     -928.48341      2965.8157      4329.5129    
     64250   327.337       -928.4804       3564.9299      4326.8296    
     64260   313.90826     -928.13791      3666.9396      4326.3318    
     64270   317.15715     -928.27505      3102.0111      4328.1058    
     64280   312.80904     -928.21539      2103.6895      4331.8497    
     64290   288.50335     -927.60343      940.33378      4336.9871    
     64300   296.27814     -927.87657     -469.44402      4342.8031    
     64310   309.92155     -928.3118      -1882.1666      4348.4311    
     64320   283.85527     -927.64252     -2866.2916      4352.9926    
     64330   279.53473     -927.56975     -3417.073       4355.8353    
     64340   313.37895     -928.56038     -3573.8901      4356.5713    
     64350   311.53427     -928.57227     -3184.7368      4355.0727    
     64360   302.17398     -928.38492     -2366.7531      4351.5439    
     64370   311.75503     -928.7305      -1284.046       4346.4657    
     64380   300.9458      -928.51319      70.15857       4340.5063    
     64390   283.204       -928.09516      1490.1529      4334.5002    
     64400   287.67066     -928.28404      2655.0603      4329.325     
     64410   297.41117     -928.61577      3468.9806      4325.7223    
     64420   303.98872     -928.86536      3862.5102      4324.2249    
     64430   291.48127     -928.59142      3703.7397      4325.1107    
     64440   276.17044     -928.23585      2824.6297      4328.3172    
     64450   286.09119     -928.57275      1402.7916      4333.3494    
     64460   282.4922      -928.52257     -1.1585408      4339.3836    
     64470   276.1038      -928.38001     -1268.8757      4345.5574    
     64480   293.5697      -928.88847     -2510.5781      4351.0582    
     64490   296.19939     -928.98103     -3443.5902      4355.0936    
     64500   278.8908      -928.51891     -3795.0608      4357.0474    
     64510   285.67346     -928.72408     -3594.0958      4356.6473    
     64520   294.80405     -928.99344     -2943.7564      4353.9692    
     64530   285.23832     -928.7396      -1990.2001      4349.3801    
     64540   298.03767     -929.10218     -820.70603      4343.4495    
     64550   283.8996      -928.70609      685.75943      4336.9093    
     64560   270.4472      -928.31449      2112.6074      4330.6793    
     64570   281.09647     -928.57367      3171.9772      4325.6489    
     64580   267.46196     -928.13847      3992.0485      4322.5146    
     64590   263.08834     -927.94049      4358.2489      4321.8142    
     64600   309.92715     -929.13321      3951.0607      4323.8078    
     64610   315.12353     -929.13812      3030.3007      4328.3181    
     64620   289.26825     -928.27813      1654.4738      4334.8284    
     64630   316.14155     -928.86796     -214.45157      4342.5132    
     64640   322.01664     -928.85694     -2046.0621      4350.2451    
     64650   293.71451     -927.91256     -3559.8644      4356.8681    
     64660   302.3954      -928.01259     -4707.9866      4361.3803    
     64670   296.45727     -927.72015     -5059.0316      4363.0187    
     64680   286.83172     -927.35055     -4609.6445      4361.4937    
     64690   307.97682     -927.84955     -3648.8594      4357.0134    
     64700   315.73269     -927.98711     -2106.8853      4350.149     
     64710   314.82111     -927.89541     -80.009991      4341.8442    
     64720   330.98847     -928.28564      1947.8223      4333.3394    
     64730   316.19652     -927.82719      3691.1438      4325.9008    
     64740   281.27205     -926.819        4949.2094      4320.6329    
     64750   321.42247     -927.90455      5381.5305      4318.3381    
     64760   337.46812     -928.33901      5228.8479      4319.3589    
     64770   308.83508     -927.55897      4376.8467      4323.6627    
     64780   330.57504     -928.19359      2583.7352      4330.7728    
     64790   334.71614     -928.34908      471.09102      4339.6633    
     64800   297.86048     -927.36621     -1525.1501      4349.0611    
     64810   307.01926     -927.65311     -3541.6809      4357.6889    
     64820   328.85765     -928.29597     -5207.2271      4364.2527    
     64830   313.01375     -927.91138     -6001.6264      4367.6593    
     64840   292.84628     -927.42178     -5885.6664      4367.3298    
     64850   305.60205     -927.8585      -5074.6378      4363.2563    
     64860   311.52897     -928.11645     -3520.4347      4355.9057    
     64870   297.06906     -927.80474     -1255.5817      4346.2312    
     64880   299.64072     -927.94952      1285.1744      4335.6265    
     64890   312.4634      -928.36661      3666.6508      4325.6695    
     64900   301.71347     -928.12565      5537.6148      4317.8475    
     64910   292.89787     -927.93875      6606.1965      4313.3414    
     64920   320.21644     -928.77272      6683.8799      4312.8527    
     64930   322.45141     -928.93739      5812.4617      4316.4998    
     64940   292.81202     -928.22658      4040.3724      4323.8203    
     64950   277.80962     -927.90377      1600.8345      4333.792     
     64960   284.79382     -928.16139     -1052.9725      4344.9565    
     64970   291.15093     -928.37329     -3488.1074      4355.672     
     64980   296.12824     -928.53073     -5422.9322      4364.379     
     64990   293.82162     -928.48367     -6639.9215      4369.7985    
     65000   297.12621     -928.60097     -6923.8613      4371.0946    
     65010   310.33867     -929.01125     -6178.4681      4368.0237    
     65020   282.6718      -928.2931      -4450.1793      4361.0118    
     65030   277.18395     -928.17786     -2300.5232      4351.0963    
     65040   306.14612     -928.9988       76.350536      4339.62      
     65050   292.971       -928.62889      2750.5532      4328.091     
     65060   266.27428     -927.86279      5131.7081      4318.1591    
     65070   283.82973     -928.31392      6654.683       4311.2913    
     65080   291.14878     -928.48468      7346.8402      4308.4621    
     65090   273.65007     -927.98105      7141.1746      4310.1404    
     65100   298.31712     -928.66124      5761.1888      4316.2423    
     65110   313.14997     -929.07096      3525.4873      4325.9999    
     65120   300.04555     -928.701        804.83164      4338.0974    
     65130   303.13678     -928.76536     -2179.0905      4350.8658    
     65140   301.21578     -928.67311     -4929.3439      4362.4384    
     65150   291.38084     -928.35628     -6999.0637      4371.0479    
     65160   294.83489     -928.4199      -8068.0493      4375.3264    
     65170   285.86276     -928.15964     -7851.4441      4374.5449    
     65180   278.56901     -927.9634      -6507.2814      4368.7864    
     65190   291.02119     -928.31725     -4340.9698      4358.8697    
     65200   293.636       -928.38401     -1418.1554      4346.1702    
     65210   283.54562     -928.07116      1929.6999      4332.5316    
     65220   300.3333      -928.47891      4852.0127      4320.0164    
     65230   301.21908     -928.43599      7045.816       4310.4372    
     65240   283.72042     -927.89501      8358.9646      4305.1498    
     65250   290.71855     -928.05665      8497.4781      4304.9627    
     65260   307.00888     -928.49881      7399.8215      4309.9946    
     65270   312.76934     -928.66548      5229.9168      4319.6306    
     65280   317.47708     -928.80381      2201.5967      4332.5903    
     65290   325.9546      -929.03329     -1251.3812      4347.0386    
     65300   308.60071     -928.52885     -4455.9571      4360.839     
     65310   284.31643     -927.82071     -7065.4381      4371.9424    
     65320   276.40908     -927.56691     -8755.4162      4378.6498    
     65330   285.89905     -927.81206     -9137.5976      4379.852     
     65340   291.57855     -927.97423     -8063.6678      4375.2833    
     65350   287.10392     -927.86604     -5758.5464      4365.6171    
     65360   287.22155     -927.87201     -2633.5867      4352.3226    
     65370   308.25918     -928.42609      854.48226      4337.3862    
     65380   324.63809     -928.82087      4258.3214      4322.9988    
     65390   303.50072     -928.16326      7170.9396      4311.2649    
     65400   307.41118     -928.21229      8931.7749      4303.9333    
     65410   325.12549     -928.67455      9340.0261      4302.0624    
     65420   307.68656     -928.20172      8451.3281      4305.9053    
     65430   287.87704     -927.68747      6283.1226      4314.9388    
     65440   305.93564     -928.21794      3015.1308      4327.8638    
     65450   311.36375     -928.37108     -569.63978      4342.7143    
     65460   285.10621     -927.61388     -3843.3963      4357.276     
     65470   296.62148     -927.88206     -6648.1761      4369.4587    
     65480   308.31254     -928.14959     -8450.3132      4377.4749    
     65490   298.86462     -927.85055     -8917.9253      4380.1638    
     65500   301.81604     -927.92151     -8120.7196      4377.2181    
     65510   324.65615     -928.56103     -6318.4134      4369.1535    
     65520   319.0236      -928.41359     -3604.7674      4357.159     
     65530   300.62295     -927.89892     -372.60941      4342.9791    
     65540   300.44447     -927.86088      2938.0268      4328.6589    
     65550   312.46347     -928.13651      5829.2791      4316.2454    
     65560   307.57837     -927.94091      7873.544       4307.4854    
     65570   290.8787      -927.43579      8803.1414      4303.587     
     65580   299.39256     -927.65546      8460.641       4305.0777    
     65590   317.62641     -928.16612      6947.7204      4311.738     
     65600   315.07371     -928.11086      4507.3828      4322.6528    
     65610   317.20116     -928.18062      1343.4638      4336.3276    
     65620   324.59852     -928.37826     -2061.6223      4350.8149    
     65630   320.30453     -928.23858     -5132.1071      4363.9896    
     65640   303.83082     -927.76233     -7427.6395      4373.9093    
     65650   298.17056     -927.60268     -8667.1743      4379.1144    
     65660   308.30889     -927.91232     -8680.6502      4378.8305    
     65670   301.56387     -927.78432     -7348.4839      4373.0926    
     65680   290.93335     -927.55988     -4938.1907      4362.7942    
     65690   307.88768     -928.09041     -1928.9052      4349.505     
     65700   326.43451     -928.64948      1361.1399      4335.16      
     65710   299.39092     -927.92574      4612.4419      4321.826     
     65720   290.3264      -927.68875      7087.5023      4311.4636    
     65730   316.07922     -928.43176      8305.288       4305.5245    
     65740   313.24452     -928.41576      8431.4711      4304.71      
     65750   296.83091     -928.05493      7445.0199      4309.0471    
     65760   289.37831     -927.95587      5385.5354      4317.904     
     65770   291.91569     -928.12459      2550.9566      4330.0117    
     65780   307.54798     -928.63633     -609.13014      4343.6246    
     65790   311.91606     -928.81704     -3599.9712      4356.7798    
     65800   301.40841     -928.57456     -6079.4233      4367.5971    
     65810   297.32821     -928.51429     -7752.6196      4374.5173    
     65820   285.44249     -928.25345     -8314.8188      4376.5096    
     65830   270.27574     -927.91467     -7663.5457      4373.2654    
     65840   280.71826     -928.29194     -5945.9769      4365.2578    
     65850   290.58141     -928.64491     -3302.7265      4353.6495    
     65860   279.53827     -928.38992     -74.299112      4340.1617    
     65870   281.14672     -928.45014      3161.1722      4326.8268    
     65880   288.21369     -928.63414      5898.9798      4315.6284    
     65890   300.67467     -928.9631       7715.0744      4308.1907    
     65900   310.62189     -929.24284      8368.5583      4305.5484    
     65910   294.64976     -928.8317       7776.6503      4308.0302    
     65920   288.42731     -928.70859      5879.0742      4315.2145    
     65930   289.50392     -928.784        3116.8784      4325.9218    
     65940   262.02459     -928.04012      219.61339      4338.4609    
     65950   261.44527     -928.00469     -2613.5758      4351.0183    
     65960   304.33004     -929.14152     -5136.8524      4361.8172    
     65970   289.39577     -928.65852     -6675.8912      4369.3084    
     65980   265.4678      -927.93151     -7237.4791      4372.5369    
     65990   296.18619     -928.72122     -6987.3874      4371.1817    
     66000   297.57217     -928.68688     -5634.9188      4365.4887    
     66010   279.44502     -928.10099     -3446.3007      4356.3762    
     66020   317.16238     -929.03366     -1027.0858      4345.2577    
     66030   322.7077      -929.0335       1643.9673      4333.7005    
     66040   281.52478     -927.72941      4238.2033      4323.3626    
     66050   302.87795     -928.1593       5965.1104      4315.7758    
     66060   316.01694     -928.35899      6830.8761      4311.952     
     66070   300.79806     -927.80453      6779.866       4312.3538    
     66080   304.52637     -927.80935      5673.1436      4316.8817    
     66090   302.63425     -927.67598      3798.4871      4324.8254    
     66100   299.13959     -927.50615      1439.9777      4335.0108    
     66110   329.06859     -928.26176     -1148.6448      4345.9629    
     66120   314.23599     -927.77647     -3383.8296      4356.0861    
     66130   294.69344     -927.17218     -5086.5007      4363.9843    
     66140   328.03185     -928.04961     -6214.5817      4368.5981    
     66150   324.89622     -927.94038     -6287.5535      4369.28      
     66160   301.14176     -927.28623     -5348.7932      4366.0377    
     66170   335.42787     -928.26077     -3894.6674      4359.5006    
     66180   341.75972     -928.47348     -1889.0455      4350.6561    
     66190   312.54759     -927.70473      427.52064      4340.7993    
     66200   321.6153      -927.99449      2490.2174      4331.3684    
     66210   326.64633     -928.1773       4079.6578      4323.6228    
     66220   283.42545     -927.02171      5181.3711      4318.5122    
     66230   281.89766     -927.0209       5453.651       4316.6434    
     66240   310.72561     -927.86814      5061.2587      4318.1418    
     66250   313.21913     -927.99553      4223.2737      4322.7332    
     66260   303.90729     -927.80105      2837.5474      4329.8604    
     66270   315.0657      -928.17256      883.9462       4338.6386    
     66280   328.82286     -928.61474     -1260.2821      4347.8566    
     66290   323.80858     -928.53896     -3196.8801      4356.1872    
     66300   311.42761     -928.2628      -4748.6263      4362.4249    
     66310   308.71246     -928.262       -5674.3222      4365.6224    
     66320   301.87152     -928.15832     -5725.4309      4365.2432    
     66330   279.20232     -927.61509     -4811.6225      4361.3133    
     66340   283.13586     -927.80015     -3212.3629      4354.4518    
     66350   292.7407      -928.12596     -1129.1304      4345.7118    
     66360   299.73842     -928.36061      1069.4148      4336.4163    
     66370   309.65239     -928.66388      3074.0838      4327.9308    
     66380   306.41457     -928.59833      4623.4553      4321.4691    
     66390   299.00255     -928.41992      5381.2771      4317.9297    
     66400   302.6986      -928.55823      5357.5318      4317.732     
     66410   291.03221     -928.2761       4685.271       4320.8234    
     66420   285.97376     -928.17374      3265.4017      4326.746     
     66430   305.71259     -928.75193      1273.4567      4334.6018    
     66440   285.72394     -928.21289     -657.23378      4343.1733    
     66450   273.04658     -927.85922     -2409.9047      4351.2504    
     66460   295.38563     -928.46268     -3922.4291      4357.7361    
     66470   309.27525     -928.82993     -4855.0778      4361.7095    
     66480   300.24379     -928.57212     -5010.4764      4362.6178    
     66490   288.86463     -928.25931     -4478.2308      4360.394     
     66500   285.70161     -928.17545     -3347.1453      4355.4153    
     66510   297.63076     -928.50451     -1795.7288      4348.4282    
     66520   310.98853     -928.867       -18.440412      4340.4309    
     66530   297.49925     -928.47847      1880.6612      4332.5489    
     66540   297.98094     -928.47307      3495.6036      4325.9384    
     66550   309.73356     -928.78284      4493.2304      4321.5593    
     66560   278.13998     -927.89497      4883.5235      4319.9961    
     66570   271.88538     -927.71269      4496.5249      4321.4411    
     66580   307.15986     -928.68161      3390.1871      4325.625     
     66590   292.34445     -928.25769      1997.9487      4331.8656    
     66600   279.77715     -927.89184      355.15288      4339.282     
     66610   309.87381     -928.69934     -1432.4197      4346.8454    
     66620   310.62545     -928.68813     -2914.8492      4353.4583    
     66630   287.27189     -928.01252     -3887.2606      4358.2043    
     66640   295.05072     -928.20556     -4403.9427      4360.4778    
     66650   305.88312     -928.48804     -4266.2461      4359.9887    
     66660   319.14614     -928.85018     -3499.6348      4356.853     
     66670   308.56174     -928.5609      -2266.8123      4351.5795    
     66680   292.62929     -928.12431     -835.77672      4344.9597    
     66690   302.93515     -928.41033      610.0708       4337.9005    
     66700   295.9783      -928.21019      2092.578       4331.3146    
     66710   277.93541     -927.69535      3313.4775      4326.1       
     66720   290.20049     -928.01697      3969.6874      4322.9767    
     66730   297.32363     -928.1957       4181.8718      4322.3332    
     66740   286.50787     -927.87981      3925.2284      4324.2749    
     66750   308.50484     -928.4786       2946.8534      4328.6055    
     66760   314.38808     -928.63166      1525.2434      4334.72      
     66770   294.95075     -928.08259     -29.629586      4341.74      
     66780   306.52067     -928.39033     -1604.4355      4348.6918    
     66790   319.08849     -928.72478     -2938.5315      4354.6       
     66800   301.61822     -928.23173     -3860.689       4358.6377    
     66810   302.87611     -928.26704     -4359.4068      4360.2311    
     66820   308.1369      -928.42255     -4192.3078      4359.0987    
     66830   298.78576     -928.17953     -3397.1341      4355.3698    
     66840   302.04379     -928.29024     -2200.7356      4349.5604    
     66850   280.73003     -927.7109      -536.53127      4342.4566    
     66860   276.34468     -927.58504      1303.0239      4335.102     
     66870   310.44266     -928.51333      2862.1797      4328.6225    
     66880   313.43659     -928.57755      4003.849       4323.9713    
     66890   293.97949     -928.02746      4542.8489      4321.8246    
     66900   313.18047     -928.56138      4324.2395      4322.4818    
     66910   304.86343     -928.34118      3608.8593      4325.8041    
     66920   272.72171     -927.45989      2359.1392      4331.3305    
     66930   309.82816     -928.49221      532.11496      4338.2689    
     66940   332.12864     -929.10821     -1133.7151      4345.516     
     66950   289.58266     -927.92796     -2326.5494      4352.0415    
     66960   297.71137     -928.15561     -3483.3745      4357.0662    
     66970   320.69561     -928.80099     -4341.2497      4359.8792    
     66980   294.72187     -928.10155     -4424.9287      4359.978     
     66990   293.89405     -928.11578     -3930.8396      4357.314     
     67000   290.64775     -928.07358     -2838.7546      4352.2264    
     67010   265.54068     -927.42354     -1207.891       4345.4277    
     67020   288.28521     -928.09547      542.58487      4337.9373    
     67030   317.82519     -928.95925      2307.1642      4330.8559    
     67040   300.92486     -928.54526      3845.2813      4325.267     
     67050   310.44302     -928.8834       4555.0998      4322.0741    
     67060   317.75598     -929.19007      4485.3723      4321.6998    
     67070   275.73124     -928.1391       3916.7225      4324.0985    
     67080   269.03196     -928.05744      2683.0377      4328.8928    
     67090   296.14946     -928.90927      1005.3219      4335.3187    
     67100   276.59259     -928.45075     -543.40678      4342.3601    
     67110   274.60135     -928.46041     -2051.6813      4349.0342    
     67120   288.21849     -928.88994     -3375.8739      4354.3995    
     67130   283.6163      -928.80806     -4171.5077      4357.64      
     67140   266.72197     -928.37742     -4230.8568      4358.2726    
     67150   284.93552     -928.91669     -3728.8239      4356.2603    
     67160   295.1106      -929.22792     -2654.3397      4351.944     
     67170   295.08815     -929.25233     -1276.8662      4346.0048    
     67180   282.42541     -928.91672      230.70086      4339.3164    
     67190   274.51786     -928.69761      1741.1341      4332.8255    
     67200   288.10986     -929.06153      2921.6912      4327.4531    
     67210   280.43827     -928.82605      3619.9842      4323.9165    
     67220   256.1184      -928.12115      3813.9377      4322.6327    
     67230   261.85693     -928.23846      3564.2417      4323.7108    
     67240   289.51526     -928.94531      2946.8718      4326.9901    
     67250   288.74837     -928.84849      1975.6461      4332.0827    
     67260   281.16481     -928.55334      584.82565      4338.376     
     67270   299.7561      -928.97006     -992.00468      4345.0105    
     67280   312.99124     -929.22527     -2353.0662      4351.0163    
     67290   297.38883     -928.68466     -3335.4595      4355.5433    
     67300   290.24229     -928.38868     -4002.9035      4357.9662    
     67310   292.9782      -928.37221     -4137.7563      4357.8808    
     67320   286.53692     -928.1066      -3509.3259      4355.2261    
     67330   275.97903     -927.72924     -2268.4133      4350.408     
     67340   295.55839     -928.18211     -834.75965      4344.2018    
     67350   317.38694     -928.68893      684.96474      4337.5168    
     67360   298.7379      -928.07775      2268.868       4331.3098    
     67370   290.10885     -927.75497      3504.8327      4326.5418    
     67380   312.62704     -928.30208      4090.5782      4323.9539    
     67390   320.73861     -928.46258      4072.9208      4323.8997    
     67400   305.62064     -927.99883      3533.5784      4326.3638    
     67410   308.10139     -928.0374       2394.6533      4330.9987    
     67420   311.32339     -928.10048      906.57614      4337.1068    
     67430   305.51073     -927.9138      -577.603        4343.7766    
     67440   320.58717     -928.30906     -1970.4109      4350.0773    
     67450   320.07453     -928.27849     -3088.3761      4355.1402    
     67460   302.94774     -927.7978      -3840.5768      4358.2617    
     67470   298.15471     -927.66789     -4139.0728      4358.9718    
     67480   300.15427     -927.7324      -3807.182       4357.0988    
     67490   298.89719     -927.71007     -2819.5887      4352.8679    
     67500   298.76356     -927.71762     -1453.6918      4346.9023    
     67510   304.89998     -927.89415      129.68568      4340.0682    
     67520   314.11577     -928.15249      1832.5737      4333.3623    
     67530   321.59841     -928.36695      3328.8053      4327.8303    
     67540   317.06004     -928.26076      4279.0153      4324.3781    
     67550   319.41458     -928.36472      4443.7638      4323.5709    
     67560   330.39521     -928.73448      3829.4661      4325.5       
     67570   315.06063     -928.39745      2707.451       4329.7951    
     67580   297.78635     -928.01828      1152.2924      4335.7576    
     67590   279.50395     -927.60728     -578.69008      4342.4291    
     67600   272.23553     -927.4895      -2137.5369      4348.7402    
     67610   286.36418     -927.96059     -3269.8165      4353.7193    
     67620   294.1721      -928.26182     -3875.5795      4356.6542    
     67630   292.74447     -928.31624     -3917.3825      4357.1652    
     67640   302.55092     -928.6962      -3358.2155      4355.2339    
     67650   302.95596     -928.82957     -2295.4018      4351.2202    
     67660   296.0111      -928.76319     -1036.2541      4345.7907    
     67670   309.48513     -929.27029      170.96364      4339.7328    
     67680   286.47088     -928.76377      1431.9989      4333.8174    
     67690   256.89629     -928.04824      2522.8998      4328.8184    
     67700   279.9203      -928.77501      3211.452       4325.3966    
     67710   287.85923     -929.07551      3567.0418      4323.9772    
     67720   275.77551     -928.80855      3480.9838      4324.7685    
     67730   289.66749     -929.25428      2805.0499      4327.7027    
     67740   278.25406     -928.98517      1779.3958      4332.3746    
     67750   267.41266     -928.71235      338.59556      4338.138     
     67760   280.01044     -929.07058     -1273.2208      4344.1031    
     67770   256.81689     -928.41479     -2435.5947      4349.2914    
     67780   254.8082      -928.33076     -3156.7543      4352.9643    
     67790   299.91517     -929.54405     -3513.6962      4354.6587    
     67800   290.29355     -929.23789     -3214.9889      4354.1712    
     67810   269.15608     -928.61894     -2573.3566      4351.6761    
     67820   292.53827     -929.23499     -1790.566       4347.5744    
     67830   277.79169     -928.7878      -569.5931       4342.3879    
     67840   255.72128     -928.13167      792.77476      4336.8736    
     67850   303.12143     -929.39552      1803.8819      4331.8568    
     67860   303.82843     -929.35988      2722.8434      4327.9869    
     67870   272.63859     -928.45011      3320.514       4325.8161    
     67880   273.29652     -928.4268       3313.9569      4325.6955    
     67890   285.66454     -928.72487      2802.6433      4327.6226    
     67900   282.97424     -928.60208      1949.3391      4331.2881    
     67910   283.62723     -928.56991      803.6624       4336.1613    
     67920   270.08792     -928.13519     -333.7917       4341.5444    
     67930   290.7204      -928.64056     -1413.0454      4346.7239    
     67940   318.55742     -929.33809     -2329.5613      4351.0243    
     67950   294.56374     -928.60505     -2916.2836      4353.8751    
     67960   284.5794      -928.27112     -3252.6508      4354.8979    
     67970   308.11304     -928.86983     -3250.0636      4353.884     
     67980   285.91231     -928.20176     -2544.8119      4350.8625    
     67990   261.94323     -927.48589     -1391.2262      4346.2702    
     68000   287.00516     -928.11713     -193.43751      4340.8171    
     68010   301.99796     -928.45218      1172.4726      4335.2711    
     68020   307.85548     -928.53144      2530.6835      4330.4782    
     68030   320.51715     -928.80645      3443.0094      4327.2601    
     68040   318.15295     -928.67954      3677.7012      4326.1681    
     68050   301.78669     -928.18174      3274.1022      4327.3472    
     68060   302.16173     -928.15817      2370.7263      4330.552     
     68070   303.5472      -928.1636       1227.0528      4335.2359    
     68080   308.2617      -928.26192     -74.326504      4340.689     
     68090   294.94816     -927.85821     -1339.5424      4346.1062    
     68100   282.33594     -927.47027     -2369.4828      4350.6994    
     68110   296.71702     -927.82557     -3073.808       4353.8183    
     68120   307.6322      -928.0824      -3264.9879      4355.0261    
     68130   305.24053     -927.97541     -2986.8252      4354.1976    
     68140   311.93148     -928.12741     -2321.3338      4351.5068    
     68150   307.91855     -927.98607     -1261.166       4347.3805    
     68160   307.06976     -927.93382     -46.695084      4342.4793    
     68170   330.96015     -928.57035      1026.3012      4337.5536    
     68180   329.13136     -928.50347      1954.7102      4333.2779    
     68190   307.24195     -927.89375      2650.0709      4330.227     
     68200   315.69509     -928.13834      2926.1151      4328.8194    
     68210   314.54384     -928.12907      2834.786       4329.2302    
     68220   298.2924      -927.71221      2340.8605      4331.4007    
     68230   306.74491     -927.99057      1398.7058      4335.0204    
     68240   299.04495     -927.82824      323.07187      4339.522     
     68250   286.94312     -927.54697     -792.50985      4344.2357    
     68260   299.35565     -927.95323     -1876.6061      4348.4613    
     68270   293.1322      -927.85264     -2565.5034      4351.534     
     68280   289.89486     -927.84675     -2781.1352      4353.0178    
     68290   313.49412     -928.60608     -2634.4225      4352.7675    
     68300   323.7203      -929.02757     -2137.0477      4350.8758    
     68310   307.05937     -928.72475     -1359.8159      4347.6561    
     68320   305.50012     -928.85175     -544.25348      4343.5861    
     68330   290.63091     -928.60411      377.47187      4339.1876    
     68340   278.80201     -928.41707      1270.0985      4335.0323    
     68350   285.76241     -928.72956      1898.9328      4331.6655    
     68360   278.46668     -928.6258       2289.8118      4329.4811    
     68370   266.76058     -928.37447      2449.1527      4328.7233    
     68380   276.05742     -928.68715      2255.2505      4329.4834    
     68390   278.22181     -928.7863       1795.379       4331.6488    
     68400   275.50435     -928.73551      1105.8859      4334.937     
     68410   282.82676     -928.94986      220.62422      4338.9208    
     68420   285.72847     -929.02941     -675.60297      4343.0567    
     68430   284.57007     -928.98635     -1450.5807      4346.7878    
     68440   292.36604     -929.18479     -2082.0492      4349.6239    
     68450   289.9393      -929.09546     -2533.8992      4351.1636    
     68460   268.47468     -928.47314     -2618.9873      4351.1289    
     68470   270.28217     -928.48787     -2297.33        4349.4653    
     68480   296.04992     -929.15388     -1627.8013      4346.3719    
     68490   290.48966     -928.94073     -607.13082      4342.2741    
     68500   259.29872     -928.00938      519.87193      4337.8029    
     68510   273.35532     -928.32039      1431.2557      4333.6473    
     68520   302.17546     -929.01937      2236.0035      4330.3864    
     68530   291.49479     -928.61742      2881.0244      4328.5212    
     68540   288.62386     -928.43935      2939.506       4328.4304    
     68550   314.3157      -929.05608      2401.6439      4330.1531    
     68560   303.67694     -928.67092      1719.1357      4333.3862    
     68570   283.24705     -928.0277       846.03836      4337.7046    
     68580   299.57887     -928.40581     -367.63603      4342.5549    
     68590   297.88446     -928.28159     -1544.7552      4347.1979    
     68600   286.25422     -927.88752     -2445.052       4350.9       
     68610   287.9495      -927.86757     -2912.0497      4353.0943    
     68620   298.38849     -928.09372     -2875.4117      4353.4827    
     68630   313.45412     -928.45656     -2443.9871      4352.078     
     68640   321.72379     -928.64465     -1738.1427      4349.1438    
     68650   303.89177     -928.12202     -768.4354       4345.1275    
     68660   300.51195     -928.00665      189.18898      4340.6246    
     68670   320.12106     -928.53319      1038.4625      4336.2327    
     68680   290.98115     -927.71038      1973.2683      4332.4979    
     68690   272.9712      -927.19402      2671.1155      4329.9874    
     68700   326.7333      -928.66879      2768.6154      4329.1157    
     68710   330.79976     -928.77454      2683.8048      4329.9757    
     68720   298.66278     -927.89143      2298.0694      4332.513     
     68730   315.07267     -928.36272      1248.0085      4336.4714    
     68740   314.18017     -928.35712     -67.042794      4341.224     
     68750   276.10622     -927.31457     -1243.967       4345.9692    
     68760   297.0347      -927.90294     -2262.0363      4349.9603    
     68770   303.55804     -928.0875      -2780.4036      4352.5684    
     68780   285.0883      -927.57744     -2773.6352      4353.4605    
     68790   322.31        -928.61757     -2607.3091      4352.6087    
     68800   330.12616     -928.8524      -1982.0894      4350.1356    
     68810   297.95693     -927.98821     -1000.0643      4346.428     
     68820   310.51904     -928.3682      -144.93814      4342.076     
     68830   321.43432     -928.70988      700.20673      4337.626     
     68840   276.88798     -927.50965      1736.0881      4333.6241    
     68850   297.68165     -928.11972      2358.7524      4330.6808    
     68860   312.7101      -928.57348      2649.0777      4329.1963    
     68870   275.86438     -927.58868      2667.1407      4329.3605    
     68880   293.55689     -928.11622      2073.7222      4331.1683    
     68890   317.60382     -928.82494      1306.8928      4334.284     
     68900   281.69661     -927.87167      665.66527      4338.2531    
     68910   290.71439     -928.16392     -299.21114      4342.6476    
     68920   317.0846      -928.94285     -1322.2256      4346.879     
     68930   296.80678     -928.43768     -1947.3112      4350.3268    
     68940   306.70204     -928.78604     -2505.7168      4352.5667    
     68950   313.70623     -929.08493     -2925.3147      4353.2412    
     68960   268.05789     -927.93806     -2778.4216      4352.1033    
     68970   275.42775     -928.27004     -2256.228       4349.2235    
     68980   289.21612     -928.79543     -1274.055       4344.9354    
     68990   273.11824     -928.49066      21.864252      4339.8496    
     69000   279.31651     -928.79552      1168.326       4334.7542    
     69010   282.45098     -929.00957      2136.9633      4330.3689    
     69020   260.14693     -928.4959       2974.5626      4327.307     
     69030   277.79236     -929.07386      3237.6137      4326.0679    
     69040   289.62361     -929.48441      2952.1721      4326.8266    
     69050   265.5255      -928.88278      2383.9232      4329.433     
     69060   272.93721     -929.13792      1439.9451      4333.5368    
     69070   286.06376     -929.53671      247.12396      4338.565     
     69080   266.31634     -929.00476     -938.40033      4343.7903    
     69090   273.36218     -929.19973     -2070.2707      4348.4649    
     69100   287.92659     -929.58947     -2946.9989      4351.8784    
     69110   273.93639     -929.17915     -3361.2891      4353.4753    
     69120   257.97552     -928.70747     -3259.3244      4352.982     
     69130   255.88139     -928.6075      -2667.0771      4350.45      
     69140   260.00526     -928.66081     -1676.3545      4346.2417    
     69150   270.21229     -928.86187     -466.77083      4340.9682    
     69160   271.33323     -928.7912       855.35509      4335.3858    
     69170   278.95976     -928.88912      2120.6717      4330.3153    
     69180   288.8145      -929.0428       3162.2852      4326.5433    
     69190   288.1287      -928.9111       3738.2059      4324.7132    
     69200   291.40989     -928.90517      3638.5737      4325.1827    
     69210   313.61934     -929.44121      2937.3843      4327.9089    
     69220   304.36027     -929.12218      1979.4211      4332.4951    
     69230   276.09722     -928.29075      630.55043      4338.3485    
     69240   277.79614     -928.28959     -1137.9436      4344.6297    
     69250   286.94892     -928.4871      -2696.2879      4350.2597    
     69260   270.01521     -927.95849     -3487.9592      4354.2736    
     69270   266.15658     -927.79411     -3696.2649      4356.1385    
     69280   288.72897     -928.36032     -3512.4211      4355.6929    
     69290   306.59502     -928.79701     -2865.9472      4353.0424    
     69300   300.97112     -928.58875     -1698.5514      4348.5906    
     69310   308.74227     -928.75796     -320.3039       4343.0511    
     69320   320.90744     -929.05232      979.52413      4337.2756    
     69330   299.72683     -928.42748      2091.8317      4332.077     
     69340   283.39468     -927.94057      2881.2633      4328.1469    
     69350   292.93034     -928.16951      3332.7494      4325.9855    
     69360   291.41536     -928.08979      3387.5605      4325.8829    
     69370   287.8023      -927.95256      2944.2761      4327.8839    
     69380   297.34797     -928.17799      2085.2025      4331.7364    
     69390   299.74856     -928.19985      980.72399      4336.9319    
     69400   320.05537     -928.71624     -344.1871       4342.7909    
     69410   329.12813     -928.92429     -1615.0881      4348.4997    
     69420   292.13715     -927.8624      -2587.9654      4353.2647    
     69430   291.65781     -927.81721     -3433.2784      4356.4421    
     69440   319.32373     -928.55354     -3890.853       4357.4904    
     69450   292.70884     -927.79012     -3530.2658      4356.1235    
     69460   281.72677     -927.4635      -2642.5102      4352.5329    
     69470   328.81699     -928.74434     -1534.0665      4347.2478    
     69480   304.2631      -928.03315      43.657838      4340.9818    
     69490   288.89192     -927.57682      1564.9171      4334.6929    
     69500   321.30727     -928.4404       2746.1596      4329.3229    
     69510   306.63257     -927.99733      3709.8336      4325.6284    
     69520   295.43136     -927.65843      4038.9513      4324.1991    
     69530   323.28633     -928.4105       3618.891       4325.2536    
     69540   297.06889     -927.66581      2959.02        4328.5902    
     69550   312.96296     -928.09507      1841.0817      4333.808     
     69560   352.22114     -929.17583      310.24193      4340.2346    
     69570   309.22551     -927.98639     -1188.7907      4346.9475    
     69580   283.38732     -927.27653     -2617.1886      4352.9997    
     69590   323.18272     -928.39128     -3821.484       4357.4768    
     69600   298.42732     -927.7239      -4194.7722      4359.6266    
     69610   285.27539     -927.38802     -4090.4103      4359.1556    
     69620   332.74053     -928.75081     -3651.0248      4356.0914    
     69630   302.68751     -927.97959     -2319.6864      4350.7261    
     69640   269.94449     -927.1309      -608.80147      4343.8555    
     69650   312.53162     -928.37155      819.0363       4336.5119    
     69660   300.60738     -928.10236      2419.782       4329.6249    
     69670   279.03685     -927.55996      3994.2051      4324.1903    
     69680   328.52254     -929.0037       4780.5229      4321.1604    
     69690   324.98375     -929.00591      4903.9733      4321.0657    
     69700   298.78241     -928.39812      4243.0294      4324.0128    
     69710   311.45289     -928.88089      2716.4306      4329.6295    
     69720   303.73685     -928.80088      804.14197      4337.031     
     69730   277.46302     -928.18569     -1193.0886      4345.0589    
     69740   276.04359     -928.23502     -3102.8493      4352.4625    
     69750   264.00675     -927.96613     -4360.0041      4358.045     
     69760   267.68409     -928.11569     -4844.9175      4360.9747    
     69770   294.79653     -928.91337     -4739.3545      4360.8847    
     69780   288.34681     -928.77879     -3939.4516      4357.8085    
     69790   289.46466     -928.85162     -2686.2175      4352.2036    
     69800   296.01448     -929.06742     -1101.2406      4344.835     
     69810   281.53088     -928.68617      753.07484      4336.6877    
     69820   269.58636     -928.3552       2659.6417      4328.9154    
     69830   290.93848     -928.93285      4085.3878      4322.6871    
     69840   298.22179     -929.11439      4971.3598      4318.9143    
     69850   290.33762     -928.88092      5208.2346      4318.1746    
     69860   285.33819     -928.73232      4632.2619      4320.6558    
     69870   292.29861     -928.9146       3216.4957      4326.0538    
     69880   281.13451     -928.58291      1384.5156      4333.564     
     69890   266.22355     -928.12828     -549.32471      4342.094     
     69900   278.58088     -928.40301     -2474.8952      4350.4429    
     69910   297.49311     -928.83316     -4034.3628      4357.3975    
     69920   286.55779     -928.4223      -4912.4849      4361.9465    
     69930   289.84752     -928.40628     -5248.0301      4363.4647    
     69940   299.31749     -928.55702     -4938.3021      4361.6855    
     69950   287.90506     -928.12919     -3760.2947      4356.7653    
     69960   295.4267      -928.22335     -1945.7553      4349.3964    
     69970   316.77526     -928.68751      175.47488      4340.6843    
     69980   319.41821     -928.62947      2278.3122      4331.9405    
     69990   307.02698     -928.16766      4011.8107      4324.4724    
     70000   305.7504      -928.03277      5098.0443      4319.3695    
     70010   303.54139     -927.89278      5493.8186      4317.3474    
     70020   298.67628     -927.70192      5102.3633      4318.703     
     70030   299.86881     -927.69746      3981.0808      4323.2643    
     70040   287.62188     -927.32672      2462.5121      4330.4236    
     70050   306.0303      -927.8059       568.95617      4339.2887    
     70060   341.317       -928.75141     -1544.535       4348.7121    
     70070   325.85545     -928.29828     -3443.7711      4357.3845    
     70080   311.79402     -927.89616     -4998.8224      4364.0712    
     70090   330.73132     -928.42661     -5997.6991      4367.7292    
     70100   308.58908     -927.8382      -5993.2965      4367.6699    
     70110   282.79965     -927.16002     -5093.1558      4363.8074    
     70120   300.76775     -927.69621     -3561.3707      4356.6336    
     70130   317.1935      -928.18455     -1445.2923      4347.073     
     70140   311.07362     -928.03872      1095.7236      4336.4324    
     70150   306.69912     -927.93066      3503.325       4326.275     
     70160   299.34157     -927.73183      5440.83        4318.108     
     70170   311.12683     -928.06916      6630.7731      4313.1618    
     70180   322.72628     -928.42339      6922.1365      4312.2311    
     70190   303.65106     -927.95009      6244.2904      4315.5828    
     70200   305.13355     -928.0602       4445.801       4322.8907    
     70210   323.30322     -928.63572      1892.9716      4333.1549    
     70220   309.27467     -928.30941     -821.15498      4344.8801    
     70230   295.10073     -927.96014     -3505.5387      4356.3846    
     70240   309.18883     -928.38384     -5936.0833      4365.9436    
     70250   295.77541     -928.04825     -7414.5493      4371.9695    
     70260   264.52834     -927.22423     -7611.9706      4373.4279    
     70270   280.41916     -927.71648     -6762.2008      4370.0667    
     70280   306.61509     -928.50109     -4945.8959      4362.3355    
     70290   307.65195     -928.5852      -2337.7854      4351.3214    
     70300   311.23754     -928.72777      610.46715      4338.6214    
     70310   312.29085     -928.78449      3519.8493      4326.0692    
     70320   301.91113     -928.51415      6025.9614      4315.484     
     70330   295.66801     -928.36182      7630.6193      4308.4348    
     70340   296.03628     -928.41101      8069.3719      4305.9644    
     70350   289.91952     -928.30345      7448.995       4308.442     
     70360   280.10458     -928.10601      5833.364       4315.6       
     70370   287.28948     -928.37646      3263.1392      4326.5529    
     70380   298.98423     -928.75399      124.01551      4339.8096    
     70390   289.15008     -928.50909     -3049.5607      4353.4665    
     70400   273.6142      -928.08187     -5813.2665      4365.5172    
     70410   283.28426     -928.34651     -7784.6577      4374.1451    
     70420   291.65192     -928.59        -8616.9378      4378.0007    
     70430   285.37389     -928.4556      -8229.2992      4376.439     
     70440   288.05672     -928.59481     -6672.6336      4369.6077    
     70450   297.82105     -928.94072     -4066.8957      4358.4293    
     70460   299.28837     -929.0478      -775.73061      4344.51      
     70470   302.57349     -929.18916      2618.0794      4329.8933    
     70480   285.55727     -928.75105      5627.9511      4316.6969    
     70490   276.69472     -928.53283      7689.7708      4306.7875    
     70500   284.08088     -928.78105      8700.5119      4301.4754    
     70510   256.45231     -928.07544      8839.6806      4301.4584    
     70520   248.58488     -927.92769      7689.8813      4306.8889    
     70530   281.36896     -928.90674      5148.8076      4317.1597    
     70540   286.36248     -929.09321      2004.3006      4330.8418    
     70550   276.3863      -928.82835     -1294.8169      4346.0559    
     70560   300.80614     -929.48181     -4647.6518      4360.7318    
     70570   292.23076     -929.19654     -7433.3579      4372.7279    
     70580   265.7617      -928.41447     -9149.1108      4380.203     
     70590   288.58689     -929.01799     -9628.6334      4381.9603    
     70600   294.66065     -929.17921     -8608.8474      4377.6185    
     70610   267.87716     -928.44177     -6300.6642      4367.7605    
     70620   272.97516     -928.57349     -3247.5948      4353.8053    
     70630   279.34551     -928.69408      364.83377      4337.6883    
     70640   268.27431     -928.27824      4152.0909      4321.6824    
     70650   293.01501     -928.81539      7364.8598      4308.1244    
     70660   297.00603     -928.76187      9640.7037      4298.9989    
     70670   276.05319     -928.04533      10579.663      4295.7065    
     70680   296.48348     -928.51727      9845.5371      4298.8509    
     70690   304.95813     -928.68161      7708.1434      4308.0773    
     70700   288.41258     -928.16563      4454.3558      4322.1755    
     70710   304.729       -928.54272      363.57867      4339.2096    
     70720   300.97481     -928.32354     -3712.1366      4356.6876    
     70730   280.6837      -927.62345     -7101.7502      4372.035     
     70740   314.33197     -928.41991     -9551.9424      4383.0286    
     70750   327.95359     -928.69054     -10593.941      4388.0442    
     70760   300.40594     -927.87995     -10118.275      4386.3535    
     70770   301.39099     -927.90968     -8432.1418      4378.2132    
     70780   303.90838     -927.9965      -5551.5668      4364.7145    
     70790   292.77299     -927.68666     -1643.595       4347.7234    
     70800   300.06267     -927.84644      2618.5907      4329.7161    
     70810   294.08558     -927.59466      6605.2277      4313.3551    
     70820   304.94227     -927.7952       9565.5529      4301.0664    
     70830   343.26805     -928.78467      11083.696      4294.6228    
     70840   314.32821     -927.96651      11190.468      4294.9406    
     70850   289.58872     -927.31911      9490.4043      4302.074     
     70860   333.00037     -928.58481      6067.5813      4315.0222    
     70870   321.17014     -928.30706      2083.3694      4331.7834    
     70880   288.13782     -927.40785     -1935.4735      4349.9204    
     70890   309.699       -927.98497     -5833.588       4366.8892    
     70900   306.19648     -927.84761     -8870.3923      4380.2158    
     70910   301.50734     -927.69638     -10641.121      4387.9312    
     70920   310.41445     -927.96815     -10882.029      4388.8903    
     70930   301.24342     -927.78823     -9572.2247      4382.9543    
     70940   297.87211     -927.79582     -6914.457       4371.0074    
     70950   315.57515     -928.38717     -3246.0968      4354.8056    
     70960   302.98341     -928.10768      1122.2821      4336.7374    
     70970   307.9511      -928.27921      5263.6903      4319.5356    
     70980   332.37752     -928.98974      8385.4014      4305.72      
     70990   299.86496     -928.15171      10362.95       4297.1541    
     71000   273.38164     -927.5148       10797.169      4294.9521    
     71010   298.79822     -928.36824      9487.9679      4299.3072    
     71020   276.88233     -927.93464      7052.6272      4309.4266    
     71030   257.51581     -927.54956      3750.5292      4323.819     
     71040   299.75233     -928.83982     -131.98467      4340.4478    
     71050   311.12887     -929.24248     -3752.1572      4356.9215    
     71060   291.59448     -928.75934     -6751.6507      4370.953     
     71070   303.07456     -929.13273     -9067.6738      4380.6211    
     71080   295.51244     -928.99947     -10078.704      4384.4943    
     71090   264.18431     -928.22604     -9498.5522      4381.9884    
     71100   278.87183     -928.73979     -7716.9193      4373.5333    
     71110   296.23489     -929.32472     -4872.5263      4360.364     
     71120   261.42196     -928.42444     -1119.0396      4344.3812    
     71130   253.56316     -928.21299      2724.1244      4327.9694    
     71140   287.25828     -929.10701      6001.5924      4313.4996    
     71150   280.91015     -928.86839      8574.2158      4302.9454    
     71160   273.65231     -928.61594      9879.7893      4297.7616    
     71170   281.17545     -928.80024      9697.7124      4298.633     
     71180   268.23068     -928.43952      8185.831       4305.3747    
     71190   277.4005      -928.69672      5370.8629      4317.002     
     71200   304.6259      -929.43315      1884.2918      4331.7797    
     71210   285.19713     -928.8443      -1529.2012      4347.5588    
     71220   279.61711     -928.61436     -4817.0611      4362.1822    
     71230   313.36488     -929.46033     -7643.0887      4373.5851    
     71240   293.02278     -928.82033     -9091.5336      4380.0513    
     71250   265.16694     -928.00768     -9167.7035      4380.7169    
     71260   283.90541     -928.51551     -8189.4961      4375.6122    
     71270   283.78085     -928.51084     -5997.6784      4365.4945    
     71280   258.48708     -927.79793     -2791.9888      4351.8692    
     71290   283.16217     -928.43976      676.19032      4336.808     
     71300   295.1813      -928.692        4090.7679      4322.5053    
     71310   273.83038     -928.0016       6981.6345      4311.0275    
     71320   305.65854     -928.79477      8597.2154      4304.0244    
     71330   322.69143     -929.20461      9000.6106      4302.3747    
     71340   283.29481     -928.08959      8304.6623      4306.2194    
     71350   301.39558     -928.596        6151.0263      4315.0163    
     71360   319.08076     -929.08684      3175.8202      4327.4147    
     71370   290.56459     -928.28023     -36.335438      4341.5635    
     71380   297.79152     -928.44128     -3413.4676      4355.4349    
     71390   295.62427     -928.31929     -6230.0588      4366.9453    
     71400   261.82815     -927.31695     -7863.5975      4374.3771    
     71410   283.39872     -927.86265     -8402.457       4376.7499    
     71420   318.87442     -928.80962     -7736.9473      4373.827     
     71430   278.44494     -927.66694     -5742.1982      4366.164     
     71440   290.9903      -927.99509     -3146.5051      4355.1002    
     71450   337.63552     -929.24567     -202.09036      4342.3534    
     71460   305.45299     -928.29297      2908.7507      4329.8068    
     71470   301.42902     -928.11793      5232.5797      4319.3242    
     71480   334.00568     -928.96435      6553.8888      4312.2615    
     71490   287.42208     -927.63417      7333.2544      4309.3643    
     71500   266.39154     -927.03343      7088.1285      4310.9809    
     71510   316.85966     -928.42217      5573.4998      4316.8564    
     71520   312.28864     -928.2808       3510.6087      4326.0364    
     71530   298.60521     -927.88395      1043.8547      4337.2067    
     71540   314.64381     -928.29571     -1668.1144      4348.8154    
     71550   306.12558     -928.00998     -4022.5851      4359.1951    
     71560   318.49074     -928.30388     -5870.2901      4366.8848    
     71570   325.27029     -928.4586      -6838.9846      4370.7782    
     71580   276.33688     -927.08816     -6546.429       4370.3544    
     71590   300.64672     -927.76354     -5550.5596      4365.8487    
     71600   334.92312     -928.71646     -3876.1394      4357.9831    
     71610   295.73158     -927.62975     -1404.4046      4347.9039    
     71620   296.995       -927.65324      1095.9888      4337.1696    
     71630   334.861       -928.67826      3188.9852      4327.3266    
     71640   304.07467     -927.79803      5054.4734      4319.6595    
     71650   293.39777     -927.4865       6215.5723      4315.2328    
     71660   322.94774     -928.30741      6320.0979      4314.6674    
     71670   308.4874      -927.92758      5534.7679      4317.9684    
     71680   309.73535     -928.00086      3843.9772      4324.5921    
     71690   325.45375     -928.48554      1609.1738      4333.4723    
     71700   289.12844     -927.52248     -499.93809      4343.2388    
     71710   293.60642     -927.68314     -2531.5115      4352.5589    
     71720   313.47847     -928.26883     -4270.3047      4360.1741    
     71730   309.65713     -928.20758     -5351.8423      4365.0284    
     71740   323.86887     -928.67097     -5706.5075      4366.4759    
     71750   324.05101     -928.77916     -5266.5699      4364.3463    
     71760   274.30182     -927.51044     -4109.0049      4358.9742    
     71770   278.12778     -927.71637     -2613.1634      4351.1239    
     71780   301.65405     -928.46171     -615.90029      4341.7948    
     71790   275.72265     -927.81227      1851.871       4332.2667    
     71800   287.46885     -928.18818      3929.5606      4324.0244    
     71810   306.86072     -928.77329      5343.1676      4318.3142    
     71820   296.72825     -928.54679      6025.2982      4315.9584    
     71830   310.01904     -928.98485      5679.8819      4317.309     
     71840   327.34715     -929.55831      4379.6082      4322.1127    
     71850   283.5321      -928.43797      2590.9829      4329.5644    
     71860   268.47679     -928.09457      379.39192      4338.5351    
     71870   279.91255     -928.46126     -1823.4767      4347.6605    
     71880   276.29865     -928.38767     -3620.3023      4355.579     
     71890   286.17185     -928.67747     -4942.3292      4361.1664    
     71900   291.00424     -928.82766     -5483.3491      4363.6221    
     71910   276.02773     -928.43131     -5131.2179      4362.6404    
     71920   279.61065     -928.54916     -4246.0183      4358.4597    
     71930   291.54673     -928.89303     -2806.2466      4351.6839    
     71940   265.69725     -928.17131     -681.09758      4343.2685    
     71950   274.45514     -928.38629      1473.6868      4334.5314    
     71960   311.41665     -929.35943      3223.7017      4326.7975    
     71970   306.16351     -929.15277      4596.1182      4321.1415    
     71980   296.04234     -928.81863      5298.4658      4318.3657    
     71990   298.8414      -928.84959      5139.3417      4318.86      
     72000   289.55182     -928.54694      4234.3891      4322.5058    
     72010   285.85528     -928.39392      2650.9816      4328.7262    
     72020   283.71595     -928.26477      745.68585      4336.5462    
     72030   275.54179     -927.94319     -1067.2536      4344.7943    
     72040   282.16942     -928.00545     -2683.5745      4352.335     
     72050   305.01019     -928.49217     -4008.781       4358.1554    
     72060   308.95738     -928.44589     -4770.0552      4361.4398    
     72070   302.33827     -928.12129     -4825.7895      4361.7265    
     72080   295.15378     -927.79905     -4152.2053      4359.0032    
     72090   297.45168     -927.75293     -2850.7083      4353.7186    
     72100   321.79976     -928.32472     -1201.1005      4346.7054    
     72110   331.36644     -928.49663      620.50806      4339.0134    
     72120   324.50406     -928.23373      2387.0604      4331.7784    
     72130   314.66161     -927.90758      3830.7675      4326.0827    
     72140   322.56185     -928.09296      4529.9663      4322.7819    
     72150   324.70062     -928.14139      4418.8008      4322.2836    
     72160   289.33659     -927.16524      3770.8387      4324.5157    
     72170   280.54426     -926.92769      2641.7103      4329.0648    
     72180   310.14063     -927.74909      1207.1866      4335.2308    
     72190   309.34795     -927.72303     -199.397        4342.1345    
     72200   307.13943     -927.65671     -1603.5798      4348.8895    
     72210   343.73561     -928.67471     -2885.5935      4354.6166    
     72220   330.76228     -928.33542     -3622.7811      4358.5332    
     72230   302.79228     -927.59487     -3928.2889      4360.169     
     72240   328.0862      -928.34582     -3981.4651      4359.3277    
     72250   328.61423     -928.42902     -3447.873       4356.011     
     72260   283.81704     -927.25641     -2204.5478      4350.5832    
     72270   291.79129     -927.53718     -727.34907      4343.8161    
     72280   306.26279     -927.98735      964.7266       4336.6543    
     72290   307.52569     -928.06319      2586.8762      4330.1452    
     72300   320.67061     -928.47397      3701.2285      4325.2681    
     72310   292.2022      -927.73408      4382.9761      4322.7086    
     72320   288.92342     -927.69192      4421.7575      4322.8623    
     72330   336.32954     -929.06779      3642.3308      4325.7298    
     72340   322.87781     -928.77165      2443.7002      4330.8449    
     72350   280.14205     -927.65739      948.74508      4337.4647    
     72360   307.54524     -928.47833     -885.99849      4344.6466    
     72370   310.22797     -928.60797     -2485.1569      4351.2707    
     72380   271.0425      -927.56342     -3627.8879      4356.3385    
     72390   287.60664     -928.05732     -4427.3049      4359.116     
     72400   298.67332     -928.39822     -4437.3369      4359.1284    
     72410   278.71809     -927.87546     -3537.5798      4356.39      
     72420   310.80349     -928.79557     -2385.97        4351.4451    
     72430   321.39976     -929.12086     -1035.6307      4345.0379    
     72440   287.93982     -928.22         609.73999      4338.0381    
     72450   289.72546     -928.28713      2128.7385      4331.456     
     72460   296.36023     -928.47917      3313.6143      4326.2263    
     72470   289.91168     -928.30436      4059.8787      4323.071     
     72480   300.8002      -928.61338      4192.0986      4322.4303    
     72490   299.83364     -928.5984       3780.6278      4324.3796    
     72500   287.08139     -928.25737      2893.5307      4328.663     
     72510   303.55895     -928.72451      1403.2252      4334.7171    
     72520   303.69395     -928.73199     -357.67046      4341.6296    
     72530   271.70185     -927.83779     -1946.3034      4348.3196    
     72540   270.45235     -927.7834      -3232.9904      4353.7886    
     72550   292.94664     -928.37744     -4012.6344      4357.2325    
     72560   295.11343     -928.40695     -4078.1227      4358.1722    
     72570   302.81821     -928.5984      -3592.7894      4356.5621    
     72580   305.73324     -928.66406     -2624.2908      4352.7185    
     72590   301.32156     -928.5307      -1303.474       4347.2602    
     72600   308.34472     -928.71562      112.59938      4341.0171    
     72610   308.91286     -928.72155      1423.4576      4334.8739    
     72620   297.54395     -928.39773      2530.641       4329.6444    
     72630   275.70661     -927.78039      3379.5072      4326.0105    
     72640   281.74099     -927.93206      3741.5641      4324.4781    
     72650   317.58738     -928.91315      3500.0393      4325.2558    
     72660   313.8282      -928.80567      2832.8169      4328.2002    
     72670   279.05809     -927.84401      1730.5883      4332.8912    
     72680   263.98243     -927.4186       354.41222      4338.6494    
     72690   286.11666     -928.00921     -1018.6029      4344.6264    
     72700   307.4628      -928.56657     -2147.7347      4349.972     
     72710   314.08621     -928.71902     -2974.1325      4353.974     
     72720   305.02953     -928.44603     -3383.0747      4356.1167    
     72730   311.83143     -928.62395     -3374.003       4356.1418    
     72740   321.49885     -928.89329     -2893.2492      4354.0643    
     72750   305.4003      -928.4579      -2036.2615      4350.1928    
     72760   289.12552     -928.01976     -1051.925       4345.0621    
     72770   282.64034     -927.84484      96.649707      4339.303     
     72780   282.60329     -927.83586      1460.1103      4333.644     
     72790   289.10223     -927.99565      2724.8329      4328.9205    
     72800   309.44154     -928.53534      3423.2498      4325.8891    
     72810   309.59682     -928.51985      3609.8207      4324.982     
     72820   298.36594     -928.19718      3373.5132      4326.3133    
     72830   307.03252     -928.43223      2637.8037      4329.7285    
     72840   304.67004     -928.36315      1450.8441      4334.7715    
     72850   275.35801     -927.54052      40.665133      4340.7144    
     72860   289.41628     -927.90862     -1401.6811      4346.6817    
     72870   330.57405     -929.01773     -2548.6467      4351.7811    
     72880   326.7519      -928.88653     -3203.0588      4355.2981    
     72890   296.48049     -928.03703     -3530.0422      4356.8063    
     72900   294.63694     -927.9833      -3505.2964      4356.1012    
     72910   305.34778     -928.28001     -2901.5574      4353.2175    
     72920   294.64953     -927.98133     -1804.1313      4348.5425    
     72930   299.60166     -928.11379     -604.47691      4342.7536    
     72940   297.39248     -928.03905      781.52389      4336.6195    
     72950   288.06177     -927.75725      2283.1651      4331.0086    
     72960   293.22949     -927.86744      3396.7107      4326.8267    
     72970   317.23772     -928.49533      3872.3418      4324.7476    
     72980   326.09012     -928.70833      3803.9491      4325.0668    
     72990   307.1106      -928.16204      3220.3047      4327.7396    
     73000   296.23732     -927.84628      2132.4154      4332.4027    
     73010   305.7901      -928.0917       699.83547      4338.3878    
     73020   325.83626     -928.62259     -860.37813      4344.8102    
     73030   323.90097     -928.54769     -2225.2335      4350.7054    
     73040   288.48379     -927.55063     -3195.4366      4355.2195    
     73050   278.70115     -927.26387     -3823.2266      4357.7316    
     73060   312.41668     -928.18236     -4051.7112      4357.843     
     73070   304.38436     -927.94492     -3456.8508      4355.4414    
     73080   288.63554     -927.49732     -2281.479       4350.8952    
     73090   308.98206     -928.04571     -854.92995      4344.9397    
     73100   334.35046     -928.72973      719.87867      4338.4773    
     73110   329.30537     -928.57894      2268.5992      4332.4922    
     73120   313.43992     -928.14232      3313.248       4327.9222    
     73130   309.31583     -928.04515      3727.5499      4325.405     
     73140   297.10988     -927.73332      3694.6847      4325.2032    
     73150   297.43999     -927.77627      3091.6974      4327.2831    
     73160   305.23556     -928.03073      2033.9854      4331.2757    
     73170   297.10419     -927.84504      833.72455      4336.5399    
     73180   288.60411     -927.64388     -402.6176       4342.3318    
     73190   311.08229     -928.30055     -1599.1702      4347.8772    
     73200   314.33181     -928.42901     -2503.2101      4352.4357    
     73210   305.39945     -928.22908     -3177.2201      4355.4273    
     73220   311.65648     -928.46365     -3523.6156      4356.4277    
     73230   309.27355     -928.47323     -3254.8383      4355.2366    
     73240   302.45071     -928.36984     -2496.9702      4352.0209    
     73250   309.69762     -928.66622     -1555.0203      4347.2484    
     73260   286.36635     -928.11443     -329.09886      4341.5286    
     73270   261.21445     -927.49148      1074.2862      4335.6314    
     73280   295.10252     -928.49484      2259.2896      4330.4131    
     73290   305.08176     -928.83509      3200.2718      4326.6134    
     73300   276.90631     -928.11388      3657.6946      4324.7988    
     73310   285.6198      -928.41291      3458.0186      4325.239     
     73320   303.45956     -928.96706      2868.9509      4327.8241    
     73330   291.58179     -928.69634      2023.8657      4332.1976    
     73340   294.99646     -928.84641      665.38126      4337.8177    
     73350   299.61049     -929.02486     -891.49446      4343.8538    
     73360   274.35112     -928.36428     -2102.8305      4349.3569    
     73370   271.52368     -928.31303     -2980.8058      4353.5566    
     73380   298.78454     -929.09121     -3577.094       4355.8893    
     73390   298.86882     -929.11759     -3654.4054      4355.9904    
     73400   280.45195     -928.63386     -3185.5588      4353.8129    
     73410   269.18201     -928.34176     -2256.3564      4349.6543    
     73420   277.37454     -928.57603     -1029.0477      4344.0998    
     73430   281.06208     -928.66753      330.04649      4337.9207    
     73440   272.37123     -928.39691      1679.1679      4331.9656    
     73450   272.56454     -928.35249      2864.3991      4327.0697    
     73460   284.53399     -928.61254      3731.1389      4323.9593    
     73470   297.45982     -928.87888      4100.1998      4323.1599    
     73480   314.91128     -929.25572      3837.3574      4324.8911    
     73490   309.08078     -928.97713      2993.3839      4328.9963    
     73500   305.01438     -928.74217      1504.2013      4334.9494    
     73510   308.80037     -928.71134     -315.07821      4341.8405    
     73520   291.57142     -928.08731     -1916.9014      4348.5597    
     73530   277.85115     -927.55936     -3222.5652      4354.0951    
     73540   291.20698     -927.77867     -4110.5868      4357.6196    
     73550   282.86495     -927.39954     -4205.7974      4358.5892    
     73560   299.76603     -927.73846     -3687.4834      4356.9296    
     73570   339.58453     -928.72623     -2685.0913      4352.9672    
     73580   314.19885     -927.93235     -1196.2458      4347.3479    
     73590   298.34775     -927.42972      247.18376      4340.9867    
     73600   333.47971     -928.35145      1494.5405      4334.7866    
     73610   328.30694     -928.16901      2807.0111      4329.5467    
     73620   294.63872     -927.2125       3733.1683      4326.0558    
     73630   315.0264      -927.76777      3866.0686      4324.8613    
     73640   329.70577     -928.17767      3606.1879      4326.0686    
     73650   315.72966     -927.80893      2985.8147      4329.5192    
     73660   328.04736     -928.18424      1666.4191      4334.8088    
     73670   318.99597     -927.97393      51.314584      4341.142     
     73680   301.76643     -927.5359      -1479.6743      4347.5266    
     73690   312.84399     -927.88323     -2778.6749      4353.0013    
     73700   302.45501     -927.63716     -3576.0151      4356.7561    
     73710   293.10534     -927.42115     -3907.4835      4358.2765    
     73720   317.49503     -928.14986     -3761.6012      4357.3497    
     73730   313.62826     -928.1058      -2902.6755      4354.0866    
     73740   304.64816     -927.92411     -1629.0784      4349.0192    
     73750   325.75681     -928.58414     -365.59572      4342.9336    
     73760   305.80872     -928.10836      1034.7289      4336.6422    
     73770   284.17277     -927.57581      2393.9352      4331.0133    
     73780   307.08061     -928.27532      3350.0285      4326.8735    
     73790   319.26995     -928.68592      3826.1219      4324.8113    
     73800   312.06353     -928.57099      3708.523       4325.1139    
     73810   298.4577      -928.28538      3000.9351      4327.708     
     73820   275.87313     -927.74036      1932.9003      4332.17      
     73830   290.46779     -928.21209      551.65972      4337.8382    
     73840   312.26292     -928.87774     -908.19727      4343.8623    
     73850   282.42411     -928.10053     -2084.5392      4349.3454    
     73860   280.5371      -928.08552     -3034.2682      4353.5347    
     73870   311.13956     -928.96987     -3573.945       4355.8339    
     73880   294.02487     -928.53143     -3440.9909      4355.9146    
     73890   292.09205     -928.51457     -2975.3459      4353.8384    
     73900   310.33783     -929.05903     -2234.2183      4349.9002    
     73910   288.79674     -928.4965      -1058.858       4344.5842    
     73920   267.92909     -927.9392       296.58026      4338.621     
     73930   281.99611     -928.33423      1565.9747      4332.8496    
     73940   285.76309     -928.42904      2726.1709      4328.064     
     73950   282.34363     -928.31606      3544.3511      4324.9738    
     73960   299.71711     -928.77889      3778.0336      4324.0703    
     73970   298.09349     -928.71594      3575.2487      4325.5105    
     73980   303.817       -928.86263      2816.8817      4329.1634    
     73990   302.83862     -928.82497      1552.9111      4334.5658    
     74000   288.22705     -928.40466     -3.2764172      4340.9452    
     74010   301.24699     -928.7432      -1640.5738      4347.3365    
     74020   307.18258     -928.88022     -2963.9352      4352.7266    
     74030   271.10344     -927.85015     -3729.2361      4356.2869    
     74040   267.62612     -927.72164     -4093.5246      4357.5128    
     74050   292.68225     -928.37566     -3892.4297      4356.1796    
     74060   292.27101     -928.31636     -2907.3184      4352.4289    
     74070   289.29551     -928.1808      -1400.8288      4346.8751    
     74080   302.16221     -928.47349      158.10581      4340.4471    
     74090   298.6887      -928.30018      1681.4434      4334.1281    
     74100   309.61361     -928.52041      2932.7438      4328.8578    
     74110   319.76102     -928.71568      3732.3329      4325.406     
     74120   316.94261     -928.55793      3945.7072      4324.2603    
     74130   304.66772     -928.14518      3596.7032      4325.5548    
     74140   290.37091     -927.67359      2805.4136      4329.0833    
     74150   300.44474     -927.85766      1611.048       4334.3611    
     74160   326.77067     -928.45174      126.39163      4340.6527    
     74170   319.58105     -928.07101     -1298.8494      4347.0496    
     74180   297.87402     -927.25548     -2503.7968      4352.6599    
     74190   314.58022     -927.46811     -3483.0577      4356.7135    
     74200   324.84278     -927.47609     -3969.2148      4358.5983    
     74210   316.51817     -927.00154     -3792.6533      4358.0094    
     74220   327.68106     -927.12311     -3015.9016      4355.0528    
     74230   334.17707     -927.1668      -1724.3808      4350.2195    
     74240   337.27951     -927.16366     -173.80479      4344.3176    
     74250   364.64982     -927.87225      1242.4673      4338.3047    
     74260   370.33426     -928.01993      2447.1851      4333.0692    
     74270   342.38721     -927.27268      3322.2399      4329.3572    
     74280   327.41453     -926.90813      3589.4116      4327.6971    
     74290   331.67768     -927.09478      3208.6356      4328.252     
     74300   322.85809     -926.93181      2514.6587      4330.808     
     74310   317.2015      -926.86375      1549.1683      4334.9388    
     74320   319.68301     -927.02445      344.91427      4340.0473    
     74330   328.73783     -927.37255     -866.71869      4345.3934    
     74340   336.47631     -927.69575     -1891.991       4350.2241    
     74350   328.7392      -927.60188     -2632.4685      4353.8926    
     74360   321.33984     -927.52355     -3058.4304      4355.9254    
     74370   329.94082     -927.89835     -3107.8378      4356.0497    
     74380   327.17854     -927.96649     -2704.3134      4354.2357    
     74390   321.81676     -927.96389     -1956.8706      4350.7308    
     74400   312.08855     -927.83293     -958.75423      4346.0046    
     74410   312.11337     -927.95827      129.76663      4340.6796    
     74420   326.24579     -928.47105      1201.6231      4335.4356    
     74430   301.12323     -927.88531      2282.7101      4330.9492    
     74440   275.61223     -927.26499      3021.3233      4327.8747    
     74450   293.52344     -927.83602      3227.8176      4326.6619    
     74460   297.59354     -928.0174       3144.2681      4327.4574    
     74470   302.38293     -928.21494      2681.9667      4330.2114    
     74480   338.71693     -929.29713      1556.785       4334.6253    
     74490   326.57679     -929.04789      210.88297      4340.0302    
     74500   279.51966     -927.82195     -1070.6659      4345.6002    
     74510   281.98822     -927.9531      -2312.015       4350.5216    
     74520   295.17031     -928.37256     -3170.6385      4354.0242    
     74530   284.75211     -928.1313      -3462.1373      4355.5662    
     74540   288.77959     -928.28819     -3375.0328      4354.9416    
     74550   289.53943     -928.35141     -2760.0554      4352.2101    
     74560   292.62828     -928.4731      -1630.2868      4347.7601    
     74570   319.93629     -929.26696     -389.6307       4342.2811    
     74580   303.90522     -928.86016      895.3816       4336.5553    
     74590   269.19615     -927.92678      2089.6187      4331.383     
     74600   287.0074      -928.44101      2902.6537      4327.4931    
     74610   295.71487     -928.69782      3412.9099      4325.4013    
     74620   275.77591     -928.15675      3501.3636      4325.4224    
     74630   291.39929     -928.60016      2928.8341      4327.6044    
     74640   306.78905     -929.03398      1948.1721      4331.6158    
     74650   290.34194     -928.58205      821.15352      4336.8689    
     74660   284.97897     -928.43047     -482.00842      4342.6619    
     74670   296.09628     -928.72565     -1841.5676      4348.1809    
     74680   283.09329     -928.34165     -2854.209       4352.5871    
     74690   277.78104     -928.16389     -3432.34        4355.2339    
     74700   297.00625     -928.65851     -3601.7677      4355.741     
     74710   308.22578     -928.92643     -3226.4004      4353.9994    
     74720   282.27431     -928.16088     -2216.0847      4350.2481    
     74730   275.0345      -927.90512     -952.65404      4345.1005    
     74740   305.83523     -928.68195      321.52138      4339.3406    
     74750   312.76108     -928.77593      1671.8064      4333.7767    
     74760   294.99959     -928.18025      2870.3786      4329.2437    
     74770   314.14291     -928.60616      3511.4696      4326.4688    
     74780   321.76442     -928.70952      3602.15        4325.8593    
     74790   294.77848     -927.86423      3180.2566      4327.4827    
     74800   296.26362     -927.81539      2212.8511      4331.085     
     74810   296.365       -927.71975      1018.8711      4336.0929    
     74820   281.26771     -927.19678     -220.18025      4341.7774    
     74830   307.69153     -927.81722     -1499.7101      4347.3603    
     74840   326.39244     -928.21593     -2432.6966      4352.0536    
     74850   312.19314     -927.71739     -2926.1727      4355.2643    
     74860   340.50302     -928.42095     -3289.8893      4356.6455    
     74870   342.02949     -928.40587     -3127.1603      4355.9802    
     74880   304.79218     -927.34369     -2391.6062      4353.3655    
     74890   323.69169     -927.85522     -1592.2062      4349.2281    
     74900   331.93986     -928.08165     -552.2863       4344.0838    
     74910   294.43772     -927.04572      747.29278      4338.5895    
     74920   309.33484     -927.46398      1818.4117      4333.5325    
     74930   346.4096      -928.50693      2645.8879      4329.587     
     74940   307.94167     -927.46919      3322.9391      4327.2827    
     74950   288.24895     -926.95833      3339.6528      4327.0169    
     74960   311.16616     -927.63313      2845.0914      4328.8226    
     74970   305.71792     -927.52296      2212.0066      4332.4283    
     74980   320.19505     -927.9704       1165.393       4337.4355    
     74990   349.3426      -928.8393      -280.42676      4343.2       
     75000   317.69898     -928.03428     -1571.7735      4348.8501    
     75010   299.01402     -927.58602     -2672.8828      4353.5644    
     75020   329.12799     -928.49732     -3520.3231      4356.6355    
     75030   317.74716     -928.26866     -3733.2741      4357.5325    
     75040   283.61208     -927.40341     -3388.5389      4356.0981    
     75050   302.73505     -928.00721     -2710.3855      4352.5225    
     75060   313.71027     -928.38034     -1449.9922      4347.2436    
     75070   297.83413     -927.99472      145.66919      4341.041     
     75080   312.874       -928.4569       1409.2465      4334.8779    
     75090   296.54953     -928.038        2525.1793      4329.5638    
     75100   275.17911     -927.46438      3428.4074      4325.7962    
     75110   300.60984     -928.18212      3782.8444      4324.1269    
     75120   302.80721     -928.25577      3707.9119      4324.7988    
     75130   282.29777     -927.69842      3254.7477      4327.7899    
     75140   326.98272     -928.9528       2109.7556      4332.8187    
     75150   344.47616     -929.46154      640.8615       4339.2141    
     75160   305.48115     -928.41112     -894.13059      4346.0813    
     75170   298.30835     -928.24012     -2547.5422      4352.4465    
     75180   297.46968     -928.239       -3868.4293      4357.2778    
     75190   272.79529     -927.57071     -4508.8145      4359.7343    
     75200   273.89395     -927.61303     -4516.5104      4359.3778    
     75210   289.87533     -928.06358     -3762.711       4356.1882    
     75220   298.36218     -928.30122     -2283.3524      4350.6266    
     75230   313.45108     -928.71817     -498.53587      4343.5974    
     75240   313.85562     -928.72545      1243.0622      4336.2054    
     75250   306.19639     -928.50872      2743.1272      4329.5368    
     75260   316.71215     -928.8027       3845.8721      4324.5255    
     75270   288.18084     -928.01942      4539.784       4321.8717    
     75280   270.46184     -927.53741      4436.8525      4322.001     
     75290   304.35607     -928.48679      3514.4835      4324.8731    
     75300   309.38471     -928.63489      2323.7429      4329.9746    
     75310   282.36618     -927.89228      1015.8295      4336.595     
     75320   289.25753     -928.0805      -632.65442      4343.9166    
     75330   307.80491     -928.57888     -2350.0287      4350.9205    
     75340   306.16244     -928.51259     -3620.0342      4356.5399    
     75350   311.38954     -928.64417     -4325.8699      4359.9495    
     75360   297.44227     -928.25309     -4422.4128      4360.6745    
     75370   286.24914     -927.94435     -3991.9517      4358.6201    
     75380   306.45234     -928.5082      -3070.3467      4354.0349    
     75390   305.90478     -928.49385     -1572.9917      4347.4949    
     75400   296.45499     -928.22767      209.82457      4339.9231    
     75410   300.3774      -928.3243       1911.929       4332.4199    
     75420   284.17512     -927.85191      3431.243       4326.0526    
     75430   289.38229     -927.96597      4446.3332      4321.7608    
     75440   321.38739     -928.82291      4744.4415      4320.1802    
     75450   299.1315      -928.18098      4491.8588      4321.5342    
     75460   282.91026     -927.71311      3585.9636      4325.6914    
     75470   309.51775     -928.42598      2054.8043      4332.1246    
     75480   312.5766      -928.4732       273.87854      4339.9269    
     75490   293.19863     -927.88957     -1512.7554      4348.008     
     75500   308.51114     -928.25876     -3215.8642      4355.2381    
     75510   319.65601     -928.5058      -4416.8774      4360.5425    
     75520   315.92274     -928.35027     -4960.2468      4363.1312    
     75530   307.99931     -928.09391     -4848.877       4362.6211    
     75540   298.84827     -927.81419     -4059.9835      4359.0513    
     75550   299.63864     -927.81129     -2683.7172      4352.8949    
     75560   312.92884     -928.14912     -946.30177      4344.9969    
     75570   304.98683     -927.88877      1035.4398      4336.4455    
     75580   295.35128     -927.57399      2889.3035      4328.4649    
     75590   293.66682     -927.47082      4401.286       4322.2123    
     75600   316.13904     -928.03705      5340.9313      4318.6309    
     75610   323.6456      -928.19798      5529.1886      4318.3222    
     75620   325.70891     -928.23031      4776.8896      4321.4285    
     75630   320.76819     -928.08619      3365.5813      4327.5447    
     75640   309.03216     -927.76144      1534.2873      4335.8462    
     75650   311.97102     -927.83995     -673.31332      4345.2165    
     75660   336.86519     -928.52551     -2961.2658      4354.2881    
     75670   327.94712     -928.28466     -4691.1534      4361.6317    
     75680   295.72868     -927.41391     -5680.8291      4366.1182    
     75690   295.03271     -927.43345     -5994.4655      4367.064     
     75700   295.25567     -927.49248     -5456.3722      4364.2357    
     75710   291.80024     -927.45772     -4042.6616      4357.9431    
     75720   308.33796     -927.97914     -1937.484       4349.0538    
     75730   313.4926      -928.18263      572.35455      4338.8791    
     75740   303.84585     -927.96829      2972.1178      4328.9719    
     75750   330.17971     -928.76116      4812.701       4320.8157    
     75760   326.12714     -928.73774      6116.9622      4315.5756    
     75770   292.95545     -927.92794      6540.9999      4314.0647    
     75780   293.58646     -928.07034      5773.8963      4316.5667    
     75790   301.09671     -928.41561      4150.4365      4322.6766    
     75800   291.45581     -928.27809      2047.4014      4331.4562    
     75810   298.28667     -928.58158     -358.4583       4341.6357    
     75820   284.07668     -928.27718     -2616.4601      4351.7412    
     75830   275.19474     -928.09084     -4530.1169      4360.3397    
     75840   315.31243     -929.25924     -5989.3308      4366.182     
     75850   298.91899     -928.87095     -6452.32        4368.3217    
     75860   244.88491     -927.43079     -5905.2647      4366.4157    
     75870   278.67265     -928.42029     -4806.2582      4360.7438    
     75880   303.83375     -929.16123     -2871.7952      4352.0038    
     75890   278.11163     -928.4723      -246.73249      4341.4058    
     75900   290.02103     -928.80342      2335.3419      4330.5629    
     75910   312.58647     -929.4141       4586.4708      4321.0855    
     75920   284.36289     -928.61057      6313.7706      4314.3788    
     75930   293.36318     -928.8495       6863.8361      4311.493     
     75940   295.01784     -928.89696      6342.0118      4312.8101    
     75950   264.39794     -928.05432      5028.408       4318.0703    
     75960   279.01315     -928.45977      2987.0553      4326.5104    
     75970   283.29957     -928.55443      656.39921      4336.9291    
     75980   275.2086      -928.28033     -1767.2457      4347.8979    
     75990   295.12005     -928.75913     -4081.0454      4357.8919    
     76000   294.80511     -928.66274     -5728.5278      4365.4446    
     76010   270.97278     -927.91769     -6437.2184      4369.4764    
     76020   310.14548     -928.92931     -6517.0013      4369.4636    
     76030   326.6548      -929.31936     -5693.4557      4365.3335    
     76040   278.80336     -927.94128     -3806.9387      4357.5961    
     76050   286.34002     -928.0983      -1460.6548      4347.4017    
     76060   312.52396     -928.74587      1051.7292      4336.221     
     76070   290.4518      -928.03758      3545.4744      4325.6305    
     76080   289.15531     -927.90221      5469.7262      4317.1619    
     76090   303.47395     -928.20026      6622.5741      4312.0102    
     76100   289.05358     -927.71582      7052.6054      4310.9148    
     76110   308.26734     -928.18804      6383.0701      4314.1527    
     76120   327.83383     -928.68618      4724.4625      4321.367     
     76130   306.70185     -928.06947      2447.8868      4331.6015    
     76140   309.22757     -928.11067     -320.14651      4343.4763    
     76150   315.85982     -928.25456     -3132.726       4355.2884    
     76160   309.8206      -928.04384     -5525.9133      4365.2634    
     76170   310.3965      -928.02734     -7155.2507      4371.8532    
     76180   300.20445     -927.73368     -7656.4882      4373.9857    
     76190   278.97183     -927.15332     -6899.2982      4371.3025    
     76200   296.81184     -927.6677      -5230.8099      4364.2376    
     76210   318.74726     -928.29542     -2835.9421      4353.8375    
     76220   309.52317     -928.0503       95.304844      4341.6168    
     76230   301.32334     -927.81519      3031.4991      4329.4041    
     76240   328.56112     -928.55402      5347.6019      4319.0078    
     76250   337.70894     -928.80412      6920.6232      4311.8679    
     76260   315.29382     -928.20822      7618.0901      4308.9571    
     76270   289.65944     -927.54501      7246.7684      4310.7173    
     76280   303.06972     -927.9794       5690.0873      4316.9483    
     76290   303.91253     -928.06634      3376.8314      4326.7584    
     76300   293.72459     -927.8324       629.33341      4338.7635    
     76310   306.64398     -928.21845     -2328.3081      4351.2694    
     76320   302.32252     -928.10781     -4924.5371      4362.4315    
     76330   297.16065     -927.96996     -6784.0063      4370.5862    
     76340   302.05824     -928.12329     -7703.0001      4374.5142    
     76350   298.48664     -928.06426     -7518.932       4373.5968    
     76360   290.42635     -927.89795     -6209.0706      4367.9306    
     76370   302.36037     -928.292       -3983.0038      4358.3351    
     76380   302.49409     -928.34759     -1077.2192      4346.2252    
     76390   305.96643     -928.47609      1951.4603      4333.4202    
     76400   318.63712     -928.84792      4638.032       4321.804     
     76410   304.82863     -928.48615      6737.6402      4313.0379    
     76420   300.29739     -928.39604      7786.1161      4308.3918    
     76430   312.60849     -928.80294      7535.691       4308.5012    
     76440   284.73101     -928.11691      6287.1928      4313.2486    
     76450   265.14718     -927.65823      4202.0034      4321.9017    
     76460   282.842       -928.2164       1538.4477      4333.2121    
     76470   284.88026     -928.31273     -1270.7746      4345.5594    
     76480   285.5076      -928.34381     -3908.8681      4357.1905    
     76490   301.97188     -928.80293     -5994.4128      4366.4331    
     76500   290.53448     -928.49369     -7110.8654      4371.9514    
     76510   273.24835     -928.03378     -7214.5643      4373.0057    
     76520   304.02416     -928.92345     -6491.7364      4369.5013    
     76530   318.27        -929.36963     -4881.5415      4361.9066    
     76540   298.97409     -928.89233     -2511.5969      4351.2538    
     76550   280.90691     -928.43568      295.61479      4339.0465    
     76560   273.52494     -928.24894      3083.7218      4327.0397    
     76570   281.55501     -928.46777      5374.6637      4316.9513    
     76580   289.64167     -928.6839       6940.3332      4310.1808    
     76590   273.95529     -928.24713      7678.7659      4307.68      
     76600   287.28975     -928.62946      7205.982       4309.8786    
     76610   307.10632     -929.20151      5587.5669      4316.5024    
     76620   281.50454     -928.51114      3234.4684      4326.5958    
     76630   264.30942     -928.03082      394.12662      4338.7285    
     76640   296.29191     -928.87722     -2578.5503      4351.1435    
     76650   293.97087     -928.73747     -4930.9675      4362         
     76660   286.43224     -928.44277     -6560.1877      4369.7847    
     76670   294.36892     -928.57679     -7415.0039      4373.4394    
     76680   292.52935     -928.44683     -7233.4254      4372.4224    
     76690   294.23489     -928.42346     -5965.8654      4366.86      
     76700   317.07271     -928.98315     -3896.2284      4357.5637    
     76710   288.92062     -928.11444     -1147.6681      4345.8762    
     76720   284.29194     -927.88359      1652.8893      4333.5176    
     76730   299.3014      -928.16817      4308.2119      4322.2456    
     76740   296.49098     -927.94682      6545.4951      4313.6889    
     76750   306.43719     -928.09167      7691.2848      4309.1725    
     76760   332.26785     -928.70404      7473.0098      4309.3638    
     76770   299.72394     -927.73131      6380.9784      4314.1494    
     76780   284.82287     -927.27392      4416.9586      4322.855     
     76790   324.65203     -928.32722      1706.247       4334.279     
     76800   324.76104     -928.26531     -1127.4865      4346.7712    
     76810   302.3277      -927.57532     -3762.1273      4358.5603    
     76820   321.70545     -928.04598     -5966.9918      4367.9752    
     76830   328.99079     -928.19635     -7243.6593      4373.6283    
     76840   300.45413     -927.38379     -7452.1614      4374.7108    
     76850   308.86802     -927.62568     -6876.4187      4371.0853    
     76860   308.76623     -927.64792     -5255.5465      4363.1703    
     76870   293.7459      -927.25572     -2581.1543      4352.044     
     76880   310.30178     -927.72207      507.697        4339.4034    
     76890   327.52895     -928.18922      3512.2264      4327.187     
     76900   326.9623      -928.16239      5965.6043      4317.2391    
     76910   340.01815     -928.53825      7381.7776      4311.0214    
     76920   336.0193      -928.48639      7722.5275      4309.3656    
     76930   296.75696     -927.49169      6952.543       4312.4451    
     76940   297.0088      -927.60988      4914.1017      4319.7508    
     76950   296.79368     -927.71524      2289.1762      4330.0515    
     76960   269.3356      -927.0403      -246.3887       4341.7467    
     76970   297.92005     -927.89669     -2805.4423      4353.2295    
     76980   334.85212     -928.98682     -5033.4187      4362.8988    
     76990   305.09891     -928.24187     -6355.784       4369.3732    
     77000   288.27064     -927.86612     -6875.3506      4371.812     
     77010   321.70717     -928.91096     -6603.2692      4369.9099    
     77020   310.50688     -928.7439      -5224.2624      4363.9057    
     77030   274.26182     -927.87042     -3053.7803      4354.7121    
     77040   292.95858     -928.49862     -702.37819      4343.7155    
     77050   298.61518     -928.7417       1817.9118      4332.43      
     77060   284.45105     -928.40629      4200.4731      4322.4187    
     77070   294.3733      -928.72303      5868.4154      4315.1046    
     77080   289.71782     -928.63303      6689.9597      4311.4678    
     77090   268.93956     -928.09455      6608.4251      4311.9612    
     77100   280.51625     -928.45262      5514.9072      4316.4823    
     77110   296.66412     -928.9324       3696.8219      4324.3408    
     77120   281.9678      -928.54218      1441.9558      4334.4057    
     77130   281.36492     -928.52137     -1141.0145      4345.2604    
     77140   289.79416     -928.72842     -3509.6158      4355.3064    
     77150   287.72633     -928.63256     -5158.7761      4363.0789    
     77160   303.60491     -929.04001     -6122.915       4367.5423    
     77170   300.37741     -928.93227     -6277.758       4368.1251    
     77180   280.20825     -928.36939     -5564.1766      4364.7826    
     77190   289.83973     -928.63856     -4141.971       4358.0194    
     77200   293.05352     -928.72238     -2030.2153      4348.7988    
     77210   272.4544      -928.1286       454.46038      4338.4842    
     77220   278.14883     -928.24356      2651.0452      4328.6148    
     77230   290.24529     -928.51897      4427.7086      4320.5407    
     77240   278.7454      -928.13526      5797.9279      4315.3249    
     77250   280.56663     -928.12731      6375.576       4313.7346    
     77260   303.26567     -928.70673      5865.707       4316.0476    
     77270   312.45999     -928.92087      4461.0901      4321.9078    
     77280   312.41274     -928.88699      2476.2163      4330.4215    
     77290   309.04828     -928.76042      237.94729      4340.3469    
     77300   305.83281     -928.63153     -2060.2585      4350.2788    
     77310   288.21904     -928.09565     -4077.7452      4358.7897    
     77320   273.98277     -927.64913     -5506.4995      4364.6365    
     77330   283.89215     -927.87175     -6124.8701      4366.9623    
     77340   310.77705     -928.57086     -5812.9467      4365.4379    
     77350   304.18513     -928.35122     -4546.9927      4360.3371    
     77360   284.33606     -927.76873     -2677.3551      4352.5167    
     77370   296.62974     -928.06733     -587.16303      4343.1952    
     77380   309.94567     -928.3765       1651.196       4333.7163    
     77390   300.79158     -928.05322      3776.5347      4325.4629    
     77400   306.52237     -928.14396      5239.1519      4319.6887    
     77410   320.41259     -928.47151      5769.2646      4317.2198    
     77420   311.1744      -928.176        5491.1183      4318.3211    
     77430   319.93488     -928.39968      4400.2479      4322.7504    
     77440   316.16459     -928.28574      2737.731       4329.7943    
     77450   294.27246     -927.6689       693.08456      4338.3922    
     77460   299.37157     -927.79053     -1479.4282      4347.2605    
     77470   300.0445      -927.77601     -3303.9702      4355.0613    
     77480   291.17259     -927.49018     -4502.2047      4360.6789    
     77490   320.13577     -928.25658     -5105.8975      4363.3904    
     77500   328.15482     -928.4526      -4882.4537      4362.8855    
     77510   302.46077     -927.72892     -3950.6684      4359.3687    
     77520   321.84274     -928.2652      -2754.0893      4353.4693    
     77530   322.9762      -928.2979      -1097.2478      4346.0138    
     77540   278.03302     -927.0492       888.54923      4338.0729    
     77550   288.19294     -927.31687      2498.3743      4330.8537    
     77560   340.09732     -928.73615      3560.0612      4325.3235    
     77570   318.081       -928.11571      4456.8061      4322.1201    
     77580   305.95147     -927.79138      4742.5504      4321.7105    
     77590   327.02031     -928.40866      4146.4074      4324.1944    
     77600   315.9697      -928.15384      2911.182       4329.1619    
     77610   300.95286     -927.79931      1232.8383      4335.8123    
     77620   300.39804     -927.84565     -540.65941      4343.0941    
     77630   296.2822      -927.79002     -2111.7987      4349.9069    
     77640   293.54026     -927.76919     -3325.399       4355.2828    
     77650   308.15381     -928.23628     -4031.329       4358.4939    
     77660   310.45981     -928.37429     -4073.5245      4359.15      
     77670   317.44921     -928.65922     -3641.1623      4357.267     
     77680   311.71388     -928.60662     -2770.3342      4353.1734    
     77690   282.12751     -927.88831     -1460.9505      4347.4712    
     77700   280.68279     -927.93419     -60.712521      4340.9988    
     77710   304.38723     -928.66955      1242.8865      4334.6374    
     77720   292.70795     -928.41683      2521.2543      4329.1983    
     77730   281.27945     -928.16081      3466.2112      4325.4302    
     77740   298.09498     -928.68681      3791.8582      4323.8579    
     77750   294.21071     -928.64022      3677.5535      4324.6454    
     77760   276.96166     -928.21941      3067.8933      4327.67      
     77770   284.09206     -928.46549      1869.8475      4332.5071    
     77780   305.54504     -929.10184      440.64418      4338.4023    
     77790   304.56598     -929.11153     -839.46675      4344.4734    
     77800   299.36173     -929.00308     -2090.2996      4349.9099    
     77810   284.95852     -928.63503     -3150.5551      4353.9491    
     77820   275.58261     -928.40088     -3746.6857      4355.965     
     77830   274.6271      -928.39387     -3706.775       4355.6311    
     77840   276.93689     -928.4704      -3089.8212      4353.0161    
     77850   272.06114     -928.33611     -2077.4622      4348.5464    
     77860   272.20927     -928.3252      -817.26484      4342.8884    
     77870   282.16801     -928.56618      688.39407      4336.8566    
     77880   298.46105     -928.96416      2149.5834      4331.3795    
     77890   308.82243     -929.18793      3178.2322      4327.3283    
     77900   295.37601     -928.75123      3657.1052      4325.3008    
     77910   284.36183     -928.38343      3592.1069      4325.5525    
     77920   300.92103     -928.77433      2925.9973      4327.9972    
     77930   310.03017     -928.94906      1856.5193      4332.1978    
     77940   287.9717      -928.25377      699.55563      4337.4849    
     77950   288.55683     -928.17901     -600.85568      4343.1179    
     77960   304.13234     -928.50185     -1850.0841      4348.2915    
     77970   293.14676     -928.07878     -2698.6152      4352.2514    
     77980   286.92546     -927.78869     -3154.5974      4354.4799    
     77990   294.21728     -927.87114     -3206.4613      4354.7187    
     78000   302.19256     -927.97226     -2797.5284      4352.971     
     78010   300.84241     -927.82132     -1964.7426      4349.5269    
     78020   317.65131     -928.18369     -913.46916      4344.9272    
     78030   321.50608     -928.19737      355.72927      4339.8531    
     78040   317.65803     -928.0165       1597.2041      4335.0899    
     78050   311.85069     -927.79802      2523.1555      4331.3881    
     78060   315.22676     -927.85048      2986.0911      4329.2937    
     78070   324.10731     -928.07149      3055.5821      4329.0728    
     78080   337.11387     -928.42868      2669.2601      4330.7345    
     78090   316.41801     -927.86916      1905.308       4334.0216    
     78100   303.3351      -927.52738      677.44132      4338.433     
     78110   321.72548     -928.06066     -717.84561      4343.2064    
     78120   302.51942     -927.55149     -1653.101       4347.5026    
     78130   272.23787     -926.72813     -2183.7397      4350.7363    
     78140   299.45824     -927.49266     -2604.5551      4352.5671    
     78150   333.70376     -928.45572     -2600.1547      4352.7667    
     78160   322.24436     -928.16455     -2012.454       4351.3695    
     78170   324.93754     -928.27974     -1331.3464      4348.7367    
     78180   338.52326     -928.71281     -733.66016      4345.3032    
     78190   311.95827     -928.04144      31.941487      4341.4715    
     78200   299.1059      -927.748        774.88515      4337.7124    
     78210   306.4263      -928.01139      1375.0102      4334.481     
     78220   288.8645      -927.57795      1942.3826      4332.1507    
     78230   277.1459      -927.29443      2308.3214      4331.0525    
     78240   307.22467     -928.16475      2270.1425      4331.3873    
     78250   329.27094     -928.81769      1926.3024      4333.124     
     78260   318.98338     -928.5848       1311.0998      4336.0377    
     78270   302.62092     -928.18723      433.59602      4339.7348    
     78280   296.27954     -928.06183     -528.83715      4343.6716    
     78290   305.84623     -928.37269     -1454.581       4347.2495    
     78300   308.82838     -928.50051     -2211.4719      4349.8961    
     78310   288.53224     -927.98025     -2538.0083      4351.1579    
     78320   277.85003     -927.71815     -2413.4703      4350.8418    
     78330   299.91891     -928.35801     -1999.1762      4349.0305    
     78340   311.48688     -928.70616     -1247.4584      4346.0036    
     78350   285.33395     -928.00377     -232.47711      4342.2438    
     78360   296.44532     -928.3291       586.79531      4338.3663    
     78370   313.42889     -928.81493      1315.0782      4334.8926    
     78380   291.09712     -928.20883      2011.1594      4332.2767    
     78390   290.1161      -928.19291      2256.0012      4330.9183    
     78400   311.48047     -928.79675      2096.9832      4330.9613    
     78410   298.23601     -928.44262      1922.1057      4332.3195    
     78420   284.71271     -928.07881      1513.4214      4334.8631    
     78430   310.00721     -928.79029      635.38247      4338.3148    
     78440   297.75492     -928.45652     -240.52572      4342.1516    
     78450   281.13395     -927.99817     -1057.8684      4345.8228    
     78460   288.24677     -928.18941     -1821.4545      4348.8161    
     78470   308.37735     -928.73856     -2402.4821      4350.6588    
     78480   296.99993     -928.41426     -2509.1367      4351.0101    
     78490   296.60092     -928.39931     -2233.0271      4349.8033    
     78500   283.84615     -928.03892     -1539.0138      4347.2278    
     78510   272.82113     -927.71814     -646.92528      4343.7174    
     78520   306.6103      -928.63182      205.50451      4339.8262    
     78530   321.45461     -929.01798      1120.0036      4336.099     
     78540   292.75246     -928.20188      1973.2892      4333.1004    
     78550   298.76362     -928.35315      2339.6086      4331.3315    
     78560   316.38548     -928.82988      2299.3818      4331.018     
     78570   296.84725     -928.28122      2088.6461      4332.1418    
     78580   299.95283     -928.36538      1471.456       4334.5495    
     78590   305.95705     -928.53093      584.28032      4337.8592    
     78600   274.00369     -927.63841     -244.92162      4341.5337    
     78610   283.54485     -927.89007     -1139.1668      4345.0406    
     78620   309.27136     -928.58525     -1826.6236      4347.8343    
     78630   284.38915     -927.87664     -2002.0996      4349.5021    
     78640   285.40953     -927.88829     -1971.5814      4349.9168    
     78650   323.83788     -928.94025     -1803.0002      4349.0993    
     78660   321.23799     -928.86406     -1321.1305      4347.1734    
     78670   304.28216     -928.40069     -699.37917      4344.4375    
     78680   296.78995     -928.20085     -41.388996      4341.2816    
     78690   295.09384     -928.15765      647.92092      4338.1213    
     78700   304.63106     -928.42359      1224.6935      4335.3799    
     78710   304.00178     -928.40864      1631.8654      4333.4129    
     78720   282.47343     -927.81242      1880.4046      4332.4725    
     78730   290.52456     -928.03333      1828.0474      4332.7011    
     78740   305.15604     -928.43387      1536.0745      4334.0663    
     78750   295.84456     -928.16924      1038.4176      4336.3861    
     78760   308.7356      -928.52224      261.85594      4339.342     
     78770   309.21815     -928.53284     -447.03178      4342.4667    
     78780   280.91409     -927.74392     -914.91429      4345.3249    
     78790   294.41601     -928.11097     -1463.0136      4347.6012    
     78800   315.29026     -928.67986     -1916.2904      4348.9609    
     78810   300.47823     -928.26215     -1931.345       4349.1408    
     78820   300.84052     -928.27092     -1639.9838      4348.1231    
     78830   303.07191     -928.33146     -1094.0677      4346.0942    
     78840   314.07975     -928.63845     -474.37553      4343.3909    
     78850   316.03271     -928.70057      151.12952      4340.4022    
     78860   293.01913     -928.0753       759.83439      4337.5211    
     78870   272.79991     -927.52248      1230.8357      4335.1222    
     78880   293.78101     -928.10574      1469.0137      4333.4916    
     78890   294.33472     -928.11541      1679.9377      4332.7898    
     78900   281.70458     -927.75453      1720.6942      4333.1383    
     78910   308.49387     -928.48356      1420.1733      4334.5503    
     78920   313.39563     -928.60296      1062.2124      4336.8564    
     78930   305.34579     -928.36679      532.34248      4339.8259    
     78940   327.72747     -928.98094     -354.4625       4343.1146    
     78950   319.35733     -928.75108     -1205.6879      4346.1886    
     78960   283.90126     -927.77726     -1767.2746      4348.5242    
     78970   283.97878     -927.78715     -2121.6199      4349.7602    
     78980   309.93304     -928.51314     -2235.9883      4349.6734    
     78990   297.07715     -928.16422     -1870.223       4348.2079    
     79000   275.08207     -927.5604      -1164.3746      4345.5881    
     79010   288.62913     -927.93355     -384.90386      4342.2456    
     79020   316.08968     -928.68459      437.31303      4338.6729    
     79030   315.48846     -928.65867      1270.0667      4335.3857    
     79040   300.39385     -928.23693      1934.3961      4332.8953    
     79050   297.46259     -928.15578      2252.0378      4331.6057    
     79060   306.59232     -928.41089      2193.4475      4331.7136    
     79070   316.74293     -928.70138      1778.2255      4333.1816    
     79080   293.51632     -928.07149      1216.4671      4335.766     
     79090   282.96811     -927.79147      381.4196       4339.1075    
     79100   305.98946     -928.43795     -610.31017      4342.6885    
     79110   304.38558     -928.39984     -1340.9564      4345.9105    
     79120   282.41334     -927.7957      -1810.7707      4348.3098    
     79130   299.93898     -928.28598     -2117.4456      4349.5807    
     79140   306.22363     -928.46443     -1986.1273      4349.5448    
     79150   287.30494     -927.94382     -1487.0543      4348.2812    
     79160   312.63819     -928.65227     -1071.0358      4346.0775    
     79170   329.27921     -929.12599     -558.3434       4343.2095    
     79180   298.77181     -928.3017       213.63713      4340.011     
     79190   284.51843     -927.92902      909.21722      4336.9475    
     79200   295.52433     -928.25426      1373.3269      4334.4456    
     79210   286.34312     -928.01407      1754.7162      4332.8076    
     79220   295.36654     -928.27775      1825.9273      4332.2559    
     79230   294.90481     -928.27668      1723.5018      4332.8459    
     79240   280.09296     -927.87329      1471.2115      4334.5168    
     79250   304.31485     -928.54895      821.6007       4337.0973    
     79260   318.57988     -928.94876      63.866102      4340.2004    
     79270   288.50951     -928.12035     -527.87718      4343.3681    
     79280   300.19622     -928.45121     -1199.4371      4346.2095    
     79290   315.10218     -928.87225     -1756.9189      4348.3123    
     79300   289.45126     -928.17155     -1975.7218      4349.335     
     79310   285.89224     -928.0837      -1982.5864      4349.1271    
     79320   302.40197     -928.55059     -1683.3146      4347.6873    
     79330   294.65875     -928.34209     -968.66514      4345.2126    
     79340   302.8516      -928.57543     -257.08241      4342.1273    
     79350   315.43283     -928.93297      355.45302      4338.8759    
     79360   284.41034     -928.08265      1023.9911      4335.8534    
     79370   259.54628     -927.3947       1583.7908      4333.4693    
     79380   288.68505     -928.19262      1827.7234      4332.0615    
     79390   305.15895     -928.62811      1911.8692      4331.7956    
     79400   295.98437     -928.35023      1780.7573      4332.723     
     79410   298.68772     -928.40117      1353.6327      4334.7601    
     79420   302.12917     -928.46762      806.32943      4337.6551    
     79430   310.52468     -928.66908      142.63759      4341.0676    
     79440   318.18049     -928.85045     -691.13125      4344.5781    
     79450   306.16498     -928.48947     -1493.5347      4347.6737    
     79460   297.84717     -928.23413     -2069.6419      4349.8539    
     79470   295.22686     -928.13525     -2285.3215      4350.7581    
     79480   295.58993     -928.1168      -2211.2523      4350.2396    
     79490   286.28192     -927.82412     -1868.2235      4348.3416    
     79500   300.68529     -928.1832      -1314.2489      4345.273     
     79510   294.1309      -927.95018     -324.14566      4341.3984    
     79520   288.44358     -927.73292      853.62792      4337.3257    
     79530   310.23409     -928.26593      1796.8895      4333.7723    
     79540   324.47059     -928.58359      2388.1961      4331.3238    
     79550   304.04596     -927.94593      2693.9079      4330.3591    
     79560   316.86545     -928.23905      2488.1517      4331.0587    
     79570   336.60113     -928.72872      1901.9312      4333.3081    
     79580   304.97608     -927.80512      1156.1571      4336.7628    
     79590   288.35703     -927.30376      92.769248      4340.9486    
     79600   309.43759     -927.8404      -990.99984      4345.2176    
     79610   324.84065     -928.21488     -1704.9212      4348.9079    
     79620   315.95004     -927.92277     -2127.638       4351.5591    
     79630   318.53184     -927.96049     -2509.3707      4352.8806    
     79640   311.56959     -927.74215     -2581.3681      4352.6411    
     79650   304.85364     -927.53837     -2180.4896      4350.7968    
     79660   318.31543     -927.89956     -1442.0185      4347.5889    
     79670   315.6435      -927.81797     -464.82955      4343.4781    
     79680   306.98838     -927.57568      578.16504      4339.0698    
     79690   312.4113      -927.72842      1550.4333      4335.0119    
     79700   308.88672     -927.63728      2404.0595      4331.9158    
     79710   324.62114     -928.09221      2729.4691      4330.2933    
     79720   343.25813     -928.65254      2550.4863      4330.3555    
     79730   313.20353     -927.89018      2202.2226      4332.0181    
     79740   290.71128     -927.3487       1540.7546      4335.0627    
     79750   320.51838     -928.27291      446.26904      4339.0743    
     79760   315.61915     -928.25348     -599.13287      4343.401     
     79770   284.89589     -927.52028     -1457.0287      4347.391     
     79780   294.99523     -927.91779     -2254.8161      4350.49      
     79790   311.6959      -928.5074      -2784.5937      4352.1971    
     79800   300.85579     -928.33787     -2736.121       4352.1862    
     79810   290.74824     -928.18307     -2208.274       4350.4722    
     79820   286.14358     -928.1666      -1365.8716      4347.3745    
     79830   303.5103      -928.74797     -433.00449      4343.4092    
     79840   319.09261     -929.27771      463.91087      4339.157     
     79850   298.69642     -928.80312      1287.6481      4335.1806    
     79860   277.06777     -928.27545      1885.2888      4331.9902    
     79870   283.73699     -928.51771      2141.8165      4329.954     
     79880   266.50914     -928.07955      2274.6031      4329.2518    
     79890   260.19187     -927.92546      2219.6117      4329.9683    
     79900   288.51858     -928.71876      1879.2799      4332.0723    
     79910   304.58583     -929.16454      1280.6879      4335.3637    
     79920   296.75362     -928.94557      438.43502      4339.477     
     79930   301.83258     -929.08301     -610.46704      4343.8907    
     79940   312.80486     -929.38403     -1700.6558      4347.9523    
     79950   288.8847      -928.71762     -2509.6187      4350.9876    
     79960   264.11956     -928.02368     -2936.5182      4352.4777    
     79970   267.13023     -928.08941     -2903.4017      4352.1445    
     79980   284.77625     -928.54852     -2364.7149      4350.0005    
     79990   283.28254     -928.46539     -1417.6203      4346.374     
     80000   280.36911     -928.33309     -348.67984      4341.8418    
     80010   297.65615     -928.74953      746.73367      4337.071     
     80020   304.1144      -928.85615      1872.5805      4332.7523    
     80030   296.31925     -928.56738      2706.3763      4329.5762    
     80040   296.72927     -928.50902      2963.835       4328.0532    
     80050   287.22511     -928.176        2826.1898      4328.3659    
     80060   289.73767     -928.17592      2410.5892      4330.4467    
     80070   309.8296      -928.65899      1657.9295      4334.0469    
     80080   318.68291     -928.83003      556.43623      4338.7073    
     80090   301.7213      -928.29122     -660.54876      4343.7575    
     80100   297.96329     -928.12331     -1736.1636      4348.4456    
     80110   298.28168     -928.06772     -2503.4406      4352.0946    
     80120   295.83613     -927.93751     -3013.2828      4354.2029    
     80130   294.62747     -927.8453      -3222.148       4354.4344    
     80140   288.58877     -927.62183     -2861.2771      4352.6582    
     80150   303.96803     -927.99389     -1956.1316      4349.0888    
     80160   321.98868     -928.44011     -747.4248       4344.2781    
     80170   316.49997     -928.24266      530.57233      4338.9728    
     80180   303.46784     -927.84472      1755.4957      4333.9709    
     80190   318.03748     -928.2197       2746.6623      4330.0331    
     80200   326.53954     -928.43816      3364.5601      4327.7795    
     80210   312.70828     -928.05399      3430.5206      4327.598     
     80220   311.68535     -928.03813      2832.4359      4329.5396    
     80230   315.80778     -928.1731       1808.9998      4333.2625    
     80240   295.11298     -927.61889      663.34933      4338.1605    
     80250   293.64727     -927.59094     -641.3839       4343.5205    
     80260   308.70807     -928.01474     -1920.9631      4348.5316    
     80270   298.23877     -927.72702     -2682.571       4352.4074    
     80280   293.70787     -927.60346     -2988.4539      4354.6445    
     80290   314.20352     -928.1765      -3027.5068      4355.0209    
     80300   329.25741     -928.60867     -2703.8759      4353.5007    
     80310   322.28704     -928.44303     -1909.3295      4350.2833    
     80320   313.50581     -928.23502     -906.89974      4345.8457    
     80330   300.86689     -927.91813      172.06665      4340.8097    
     80340   303.03174     -928.007        1218.8727      4335.8464    
     80350   309.03359     -928.20023      2166.8131      4331.6127    
     80360   298.58584     -927.93676      2861.531       4328.6994    
     80370   296.62702     -927.90899      3105.7947      4327.5407    
     80380   309.85698     -928.30637      2884.5461      4328.3025    
     80390   303.25802     -928.15844      2400.2685      4330.8787    
     80400   291.94136     -927.87938      1538.3501      4334.9785    
     80410   302.50052     -928.20387      260.30475      4340.0754    
     80420   308.57769     -928.40086     -1038.2583      4345.3983    
     80430   302.90353     -928.27229     -2047.9143      4350.1439    
     80440   299.04993     -928.1947      -2793.843       4353.6604    
     80450   308.28091     -928.48521     -3292.0568      4355.4552    
     80460   300.82806     -928.3197      -3264.5615      4355.2084    
     80470   291.57583     -928.10772     -2703.9447      4352.917     
     80480   303.83724     -928.49435     -1829.7263      4348.907     
     80490   307.46865     -928.64465     -732.73613      4343.7164    
     80500   279.07917     -927.90206      567.43732      4338.0313    
     80510   273.19073     -927.76958      1856.2666      4332.6566    
     80520   316.04593     -928.98509      2851.0893      4328.3881    
     80530   322.2689      -929.19474      3486.7188      4325.8578    
     80540   288.19987     -928.29899      3553.87        4325.467     
     80550   275.79337     -928.00584      2993.6641      4327.2758    
     80560   282.15849     -928.22865      2115.0346      4330.9787    
     80570   287.72607     -928.42311      1021.214       4336.0535    
     80580   288.57662     -928.47978     -260.86814      4341.8324    
     80590   296.46404     -928.7257      -1586.4019      4347.5226    
     80600   308.69771     -929.09349     -2692.5242      4352.2949    
     80610   303.48379     -928.986       -3378.0744      4355.4426    
     80620   280.04532     -928.38094     -3645.5913      4356.5045    
     80630   267.93658     -928.08906     -3503.6682      4355.2839    
     80640   284.35976     -928.58849     -2908.9906      4351.8467    
     80650   274.96932     -928.3646      -1642.214       4346.5661    
     80660   275.98649     -928.41812     -17.522601      4340.2113    
     80670   294.26026     -928.93658      1583.1145      4333.7818    
     80680   309.17823     -929.35782      2906.8566      4328.2711    
     80690   289.50691     -928.82066      3838.973       4324.5145    
     80700   288.72137     -928.81194      4066.7067      4323.0917    
     80710   291.73914     -928.91157      3714.7198      4324.1807    
     80720   274.97623     -928.46047      2927.69        4327.6021    
     80730   267.91182     -928.26781      1649.0617      4332.8925    
     80740   280.13719     -928.59082      67.530353      4339.2877    
     80750   290.01313     -928.82706     -1434.105       4345.8276    
     80760   285.84822     -928.65725     -2631.8487      4351.5732    
     80770   291.46565     -928.74804     -3571.8765      4355.7425    
     80780   278.75624     -928.32084     -4055.9136      4357.7228    
     80790   277.31415     -928.20069     -3939.5777      4357.1787    
     80800   298.16234     -928.68651     -3143.1413      4354.158     
     80810   311.0385      -928.93996     -1819.8682      4349.1315    
     80820   295.44959     -928.40079     -227.74924      4342.9081    
     80830   298.53611     -928.37875      1204.7836      4336.4608    
     80840   323.50727     -928.95793      2381.6439      4330.6872    
     80850   309.82538     -928.47162      3420.1068      4326.343     
     80860   286.98874     -927.74915      3969.9782      4324.0731    
     80870   288.72721     -927.71711      3794.8741      4324.2337    
     80880   292.68903     -927.74777      3129.8326      4326.7636    
     80890   299.59267     -927.86173      2164.1667      4331.2935    
     80900   313.94874     -928.18354      925.95734      4337.2515    
     80910   305.86726     -927.88589     -481.11175      4343.8882    
     80920   304.70837     -927.7847      -1975.0553      4350.3265    
     80930   329.46383     -928.40679     -3304.0734      4355.6238    
     80940   318.6112      -928.05487     -4015.8531      4358.9359    
     80950   296.24723     -927.40162     -4087.4848      4359.7743    
     80960   328.38352     -928.27495     -3761.0986      4358.0375    
     80970   329.54749     -928.3031      -2776.9711      4353.9181    
     80980   309.2103      -927.74897     -1360.3215      4348.0007    
     80990   319.20579     -928.04204      132.23026      4341.1462    
     81000   317.30407     -928.00852      1697.5494      4334.2919    
     81010   291.69427     -927.31656      3113.9646      4328.4147    
     81020   301.92197     -927.61974      3918.3373      4324.3868    
     81030   315.3074      -928.01908      4196.6639      4322.742     
     81040   301.55454     -927.67699      4104.3961      4323.6994    
     81050   309.7475      -927.95612      3326.1435      4327.2232    
     81060   315.29816     -928.17244      1961.772       4332.8791    
     81070   304.97392     -927.95266      359.36086      4339.8688    
     81080   314.74604     -928.29534     -1303.7252      4347.2121    
     81090   310.78514     -928.26476     -2754.4953      4353.8732    
     81100   301.54987     -928.09545     -3882.0591      4358.9158    
     81110   320.94574     -928.74083     -4659.1518      4361.585     
     81120   313.14821     -928.66093     -4737.9751      4361.3605    
     81130   278.12023     -927.83222     -4029.7207      4358.1501    
     81140   277.59032     -927.95264     -2815.6065      4352.3469    
     81150   283.60705     -928.24265     -1136.4375      4344.6933    
     81160   278.71023     -928.20681      891.29051      4336.2308    
     81170   287.15809     -928.51701      2824.471       4328.2088    
     81180   301.51489     -928.9786       4311.3485      4321.829     
     81190   297.52331     -928.92641      5284.8937      4318.0414    
     81200   292.73555     -928.85213      5521.2573      4317.4767    
     81210   293.16119     -928.92273      4817.4575      4320.324     
     81220   295.74101     -929.04955      3271.3316      4326.212     
     81230   280.16976     -928.65873      1273.1317      4334.254     
     81240   254.36726     -927.95534     -888.9598       4343.2498    
     81250   272.34722     -928.43841     -2963.0102      4351.8573    
     81260   293.109       -928.98075     -4498.3241      4358.7663    
     81270   277.56349     -928.5133      -5261.6412      4362.9687    
     81280   285.16746     -928.69531     -5390.353       4363.9102    
     81290   307.48924     -929.29428     -4835.3761      4361.4556    
     81300   295.78706     -928.95906     -3543.5285      4355.9144    
     81310   274.76044     -928.36536     -1757.5534      4348.0594    
     81320   276.05128     -928.3768       251.1929       4338.9878    
     81330   283.02313     -928.52534      2290.2251      4329.9515    
     81340   299.52021     -928.92566      4071.0497      4322.2199    
     81350   297.706       -928.81779      5403.668       4316.9145    
     81360   274.52073     -928.12616      6007.4996      4314.8834    
     81370   282.94873     -928.32111      5569.9883      4316.534     
     81380   296.34584     -928.65576      4319.0318      4321.6714    
     81390   285.69022     -928.3209       2522.0515      4329.5982    
     81400   306.31608     -928.84626      215.82602      4339.2405    
     81410   298.52816     -928.56798     -2025.753       4349.2098    
     81420   281.43678     -928.02458     -3999.5637      4358.0895    
     81430   296.44698     -928.36608     -5529.7831      4364.5967    
     81440   305.89626     -928.55745     -6227.4628      4367.7189    
     81450   288.62388     -928.02328     -5892.9184      4366.9588    
     81460   303.03205     -928.38274     -4860.692       4362.4489    
     81470   305.7775      -928.42093     -3143.7161      4354.8068    
     81480   290.23288     -927.94815     -891.74923      4345.0909    
     81490   312.32277     -928.50754      1432.6615      4334.6879    
     81500   318.80746     -928.62282      3696.5315      4325.057     
     81510   290.81313     -927.78322      5562.4649      4317.6105    
     81520   297.9964      -927.92935      6407.5759      4313.4981    
     81530   301.84222     -927.99396      6338.83        4313.2942    
     81540   287.86157     -927.57759      5534.0464      4317.0246    
     81550   304.69889     -928.02226      3879.4931      4324.2474    
     81560   313.65674     -928.24153      1680.1602      4334.0128    
     81570   311.99679     -928.15788     -744.32796      4345.0031    
     81580   327.16444     -928.53342     -3193.2627      4355.7091    
     81590   322.72191     -928.36627     -5170.1009      4364.5837    
     81600   304.63796     -927.83384     -6456.1611      4370.3277    
     81610   318.82459     -928.21872     -7086.2035      4372.0503    
     81620   311.32142     -928.02833     -6695.1233      4369.3075    
     81630   280.93628     -927.22016     -5094.9905      4362.3102    
     81640   286.95043     -927.41785     -2687.596       4352.0229    
     81650   298.05962     -927.7338       191.7437       4339.9463    
     81660   310.93803     -928.07541      3112.798       4327.8753    
     81670   324.22849     -928.4194       5598.268       4317.6227    
     81680   317.77512     -928.23002      7246.415       4310.7294    
     81690   308.64799     -927.99793      7822.4064      4308.2323    
     81700   316.27048     -928.27181      7195.9888      4310.5252    
     81710   306.08055     -928.08639      5533.6303      4317.2956    
     81720   301.09461     -928.06285      3086.0371      4327.5932    
     81730   307.72843     -928.36384      221.98803      4339.9662    
     81740   299.76117     -928.25166     -2697.009       4352.6567    
     81750   288.18779     -928.02288     -5261.1102      4363.8266    
     81760   299.62132     -928.43168     -7177.7668      4371.8109    
     81770   294.9192      -928.40603     -8051.3627      4375.3455    
     81780   287.165       -928.31211     -7763.377       4373.815     
     81790   279.08989     -928.21615     -6313.8344      4367.36      
     81800   282.59794     -928.43162     -3909.1683      4356.8731    
     81810   290.55313     -928.74689     -878.37325      4343.8654    
     81820   278.25564     -928.46239      2389.3469      4330.2415    
     81830   279.01407     -928.50287      5266.4901      4318.0242    
     81840   310.29036     -929.37952      7329.9687      4308.9871    
     81850   302.99531     -929.20061      8517.2558      4304.4144    
     81860   272.27288     -928.39078      8419.0043      4305.036     
     81870   291.48628     -928.98317      6821.621       4310.8214    
     81880   292.11539     -929.06143      4331.1552      4320.8758    
     81890   258.89509     -928.17724      1408.102       4333.7302    
     81900   272.53589     -928.55553     -1841.6723      4347.5862    
     81910   283.42543     -928.81639     -4813.9407      4360.4253    
     81920   274.61223     -928.50884     -7036.6665      4370.3505    
     81930   275.60696     -928.47147     -8278.544       4375.9045    
     81940   283.61606     -928.63894     -8349.7386      4376.2546    
     81950   285.50841     -928.6484      -7158.3824      4371.3317    
     81960   299.52444     -928.99627     -4936.8199      4361.8761    
     81970   292.69553     -928.74831     -1948.215       4349.3037    
     81980   290.34013     -928.59745      1223.2094      4335.4931    
     81990   307.14377     -928.94638      4122.7385      4322.4256    
     82000   288.68621     -928.30033      6663.9504      4311.9091    
     82010   273.30765     -927.74706      8311.4444      4305.4784    
     82020   303.91778     -928.48435      8507.5682      4304.1116    
     82030   305.78568     -928.44335      7530.3025      4307.959     
     82040   292.61679     -928.01258      5634.455       4316.4602    
     82050   298.6827      -928.12         2954.1968      4328.4856    
     82060   299.95856     -928.07906     -193.45635      4342.411     
     82070   304.33529     -928.10535     -3432.3512      4356.2851    
     82080   318.35892     -928.39043     -6208.0212      4368.0682    
     82090   308.25384     -928.01994     -7894.5949      4375.9947    
     82100   306.95942     -927.92801     -8457.0919      4378.9536    
     82110   314.87662     -928.12883     -8017.9092      4376.5593    
     82120   302.55149     -927.79767     -6443.1338      4369.1104    
     82130   302.21653     -927.80978     -3910.3931      4357.6275    
     82140   299.75918     -927.74756     -655.83655      4343.7452    
     82150   300.63607     -927.75043      2754.2719      4329.5141    
     82160   311.10943     -927.99884      5688.9711      4317.0402    
     82170   313.35835     -928.02018      7834.5928      4308.1143    
     82180   308.69455     -927.87184      8927.42        4304.018     
     82190   330.16581     -928.48722      8639.7048      4305.3805    
     82200   330.77823     -928.56355      7065.1145      4312.0281    
     82210   303.23176     -927.87545      4429.6751      4323.0155    
     82220   305.50515     -928.00121      1005.6513      4336.7378    
     82230   307.19849     -928.08231     -2470.2297      4351.0997    
     82240   285.6093      -927.48825     -5306.6333      4363.9371    
     82250   298.19659     -927.83155     -7397.1643      4373.4293    
     82260   308.9146      -928.1351      -8467.2233      4378.2418    
     82270   298.48741     -927.87881     -8323.276       4377.7024    
     82280   300.09604     -927.98072     -7057.2801      4371.9214    
     82290   309.68204     -928.31508     -4785.5045      4361.7473    
     82300   300.22213     -928.11148     -1798.8884      4348.6629    
     82310   298.73156     -928.10343      1359.3629      4334.5685    
     82320   309.75106     -928.41946      4329.7409      4321.4416    
     82330   296.59814     -928.05195      7012.3702      4311.1133    
     82340   299.92992     -928.1479       8705.9209      4305.1604    
     82350   328.64347     -928.98066      8793.3924      4304.5412    
     82360   315.2427      -928.68392      7497.6989      4309.2861    
     82370   293.85855     -928.18291      5136.6539      4318.5952    
     82380   297.00288     -928.35383      2108.0566      4331.0243    
     82390   285.34387     -928.08655     -1071.1819      4344.7128    
     82400   267.06095     -927.59952     -4079.5424      4357.6728    
     82410   277.88807     -927.89431     -6527.8966      4368.0113    
     82420   298.44341     -928.45795     -7856.9098      4374.2005    
     82430   297.6873      -928.44985     -7908.3146      4375.419     
     82440   296.42785     -928.45254     -7031.6616      4371.6509    
     82450   298.57993     -928.56476     -5240.4963      4363.5151    
     82460   300.67011     -928.67511     -2594.5714      4352.2126    
     82470   305.10154     -928.83884      388.31401      4339.4419    
     82480   299.98516     -928.72729      3216.8657      4327.0758    
     82490   281.69593     -928.24651      5568.4399      4316.8514    
     82500   285.08611     -928.37911      7072.7593      4310.162     
     82510   291.46269     -928.62511      7596.4299      4307.8696    
     82520   281.89382     -928.46208      7044.6928      4310.2347    
     82530   290.3428      -928.82482      5352.554       4316.8699    
     82540   295.34628     -929.10614      2950.5922      4326.7265    
     82550   262.84651     -928.32907      384.97718      4338.3287    
     82560   255.11782     -928.20086     -2292.3828      4350.0623    
     82570   286.05829     -929.12067     -4798.2662      4360.2508    
     82580   285.42817     -929.15689     -6404.0884      4367.3563    
     82590   265.49636     -928.65491     -6942.6111      4370.3898    
     82600   289.71979     -929.38716     -6720.3073      4369.0309    
     82610   286.10178     -929.3557      -5514.5276      4363.4977    
     82620   254.86868     -928.54679     -3432.4849      4354.6193    
     82630   268.17671     -928.94792     -1003.4976      4343.7432    
     82640   283.30688     -929.36719      1580.0779      4332.4282    
     82650   273.28085     -929.06017      4008.6137      4322.2782    
     82660   275.05277     -929.06366      5798.0524      4314.7453    
     82670   277.33045     -929.07481      6729.5802      4310.868     
     82680   269.01581     -928.79398      6688.814       4311.1493    
     82690   274.91568     -928.90814      5587.7979      4315.4981    
     82700   277.13556     -928.90847      3775.8585      4323.21      
     82710   267.96785     -928.57331      1571.174       4333.1505    
     82720   283.4315      -928.89391     -955.71534      4343.9296    
     82730   297.61205     -929.14884     -3329.4489      4353.9818    
     82740   284.34135     -928.63601     -5005.873       4361.8471    
     82750   284.85796     -928.5171      -5967.5182      4366.4851    
     82760   295.56445     -928.69474     -6174.4551      4367.3289    
     82770   287.26063     -928.36572     -5507.5891      4364.3135    
     82780   280.16836     -928.08881     -4088.5462      4357.9243    
     82790   296.20758     -928.45632     -2093.0648      4349.1159    
     82800   295.67023     -928.35684      318.48407      4339.1909    
     82810   296.49934     -928.29225      2592.8068      4329.6494    
     82820   297.0161      -928.21801      4404.3811      4321.878     
     82830   298.36082     -928.17541      5622.8283      4316.948     
     82840   306.75357     -928.34446      6088.7164      4315.5422    
     82850   318.87883     -928.63952      5596.534       4317.8699    
     82860   307.42979     -928.30019      4252.08        4323.5777    
     82870   303.46893     -928.17724      2217.3404      4331.7969    
     82880   314.32629     -928.46036     -98.593886      4341.2569    
     82890   307.50314     -928.24662     -2253.6993      4350.5206    
     82900   282.04378     -927.51007     -4006.5712      4358.2489    
     82910   283.24919     -927.50969     -5253.6394      4363.3588    
     82920   292.52385     -927.73275     -5670.0465      4365.1204    
     82930   297.69263     -927.84866     -5144.6822      4363.3331    
     82940   310.19613     -928.17436     -3876.992       4358.388     
     82950   329.65894     -928.69827     -2146.4769      4351.136     
     82960   328.30669     -928.65008     -121.46534      4342.7116    
     82970   323.45885     -928.51251      1780.8627      4334.3837    
     82980   310.27534     -928.14926      3326.1691      4327.3207    
     82990   296.51621     -927.77611      4386.1482      4322.4402    
     83000   285.9375      -927.49473      4836.049       4320.3401    
     83010   297.9936      -927.84717      4524.0257      4321.2303    
     83020   304.30765     -928.04613      3648.4528      4324.8753    
     83030   303.23965     -928.0448       2414.6697      4330.7019    
     83040   314.4723      -928.38725      793.00955      4337.9103    
     83050   320.60708     -928.5933      -1007.8663      4345.4836    
     83060   295.82017     -927.94525     -2615.6475      4352.3116    
     83070   285.30301     -927.69385     -3823.4563      4357.4052    
     83080   302.16087     -928.20992     -4457.6752      4360.0402    
     83090   302.33834     -928.27901     -4350.8695      4359.8703    
     83100   300.73409     -928.31537     -3664.4554      4357.0064    
     83110   317.38859     -928.87901     -2578.6311      4351.9264    
     83120   307.14252     -928.71494     -1093.9075      4345.3628    
     83130   282.306       -928.14558      535.74833      4338.2641    
     83140   281.98673     -928.24935      1993.0894      4331.6391    
     83150   281.0005      -928.32711      3198.7107      4326.3772    
     83160   287.03549     -928.59536      3906.6177      4323.1783    
     83170   296.42012     -928.96075      3990.5084      4322.4271    
     83180   278.58626     -928.56809      3624.4535      4324.1397    
     83190   273.68259     -928.52106      2707.0322      4328.0401    
     83200   287.8145      -928.99121      1394.2595      4333.536     
     83210   274.67033     -928.68644      25.41445       4339.8101    
     83220   277.2533      -928.7988      -1378.1446      4345.9978    
     83230   295.01871     -929.31923     -2598.4804      4351.2347    
     83240   289.51163     -929.18786     -3320.8334      4354.7875    
     83250   277.04594     -928.85824     -3597.5023      4356.225     
     83260   290.63182     -929.24909     -3585.1014      4355.3977    
     83270   277.4277      -928.89155     -3034.5595      4352.3702    
     83280   258.60173     -928.36715     -1972.2712      4347.5284    
     83290   269.66881     -928.65371     -629.1626       4341.5606    
     83300   264.30382     -928.45933      886.03082      4335.3238    
     83310   259.5923      -928.26055      2291.3522      4329.7497    
     83320   288.81127     -928.98058      3328.7395      4325.6807    
     83330   307.39416     -929.38854      3952.4702      4323.7279    
     83340   304.18464     -929.19573      3950.6013      4324.2275    
     83350   301.29914     -929.02145      3209.7819      4327.1336    
     83360   288.52031     -928.57706      1982.3754      4331.9697    
     83370   275.95952     -928.13676      510.56791      4337.9646    
     83380   293.36328     -928.51864     -1048.5327      4344.1946    
     83390   295.6748      -928.47391     -2261.0719      4349.7084    
     83400   280.45817     -927.95139     -3022.4559      4353.7597    
     83410   297.01987     -928.32151     -3550.8936      4355.8711    
     83420   301.73125     -928.37486     -3531.4658      4355.7561    
     83430   292.13724     -928.05095     -2897.8448      4353.4618    
     83440   303.85566     -928.3334      -1968.7936      4349.3993    
     83450   303.05283     -928.27656     -763.33071      4344.1821    
     83460   299.33469     -928.14509      526.39828      4338.5715    
     83470   308.15002     -928.36504      1694.8859      4333.3664    
     83480   301.34361     -928.155        2694.7505      4329.2852    
     83490   298.8649      -928.06991      3281.4155      4326.9163    
     83500   315.42458     -928.52112      3294.7898      4326.5896    
     83510   299.88651     -928.08971      2950.1426      4328.3029    
     83520   286.68626     -927.72604      2233.4685      4331.8207    
     83530   311.06593     -928.40292      1089.9958      4336.6788    
     83540   321.27338     -928.68714     -232.23451      4342.1693    
     83550   301.11442     -928.13196     -1487.7184      4347.4752    
     83560   300.56332     -928.12173     -2588.1811      4351.8128    
     83570   309.21866     -928.36956     -3275.9526      4354.5105    
     83580   291.38195     -927.88667     -3305.8961      4355.1619    
     83590   280.43787     -927.59479     -2860.9333      4353.7546    
     83600   300.772       -928.16678     -2167.9965      4350.5763    
     83610   320.98254     -928.73597     -1189.3204      4346.0845    
     83620   309.2934      -928.42479      94.305636      4340.9112    
     83630   297.44039     -928.11123      1302.887       4335.8445    
     83640   300.31576     -928.20469      2199.7312      4331.6247    
     83650   306.52808     -928.39361      2767.1258      4328.7996    
     83660   298.05994     -928.17976      3023.5047      4327.711     
     83670   293.19298     -928.07092      2838.5193      4328.4959    
     83680   283.55059     -927.82804      2284.8823      4331.034     
     83690   290.92275     -928.05266      1370.4141      4334.9719    
     83700   312.44876     -928.66662      250.92708      4339.7441    
     83710   318.0653      -928.84385     -845.69901      4344.6591    
     83720   301.85291     -928.42137     -1716.1212      4349.0415    
     83730   308.66782     -928.64655     -2485.4021      4352.3336    
     83740   299.16134     -928.42659     -2947.5836      4354.0668    
     83750   287.65841     -928.15752     -3044.4911      4353.9561    
     83760   287.30577     -928.201       -2730.8351      4351.9511    
     83770   288.85055     -928.29778     -1936.7824      4348.2648    
     83780   290.81845     -928.405       -806.97642      4343.4007    
     83790   290.38348     -928.4428       400.14004      4338.0623    
     83800   280.83134     -928.22207      1566.4325      4333.0035    
     83810   277.28124     -928.15983      2585.8994      4328.9453    
     83820   289.41476     -928.52962      3225.5859      4326.5029    
     83830   289.96098     -928.5781       3406.4551      4326.0634    
     83840   299.39822     -928.87775      3065.3484      4327.729     
     83850   315.77051     -929.3799       2232.3728      4331.286     
     83860   301.88976     -929.05167      1075.4053      4336.2244    
     83870   287.95307     -928.72273     -306.25305      4341.8252    
     83880   287.16207     -928.75474     -1713.9802      4347.2313    
     83890   271.33003     -928.36105     -2814.4192      4351.5729    
     83900   265.08387     -928.22358     -3437.4041      4354.1617    
     83910   273.89629     -928.49644     -3504.4878      4354.6073    
     83920   276.41038     -928.58667     -3011.0913      4352.8722    
     83930   291.07169     -929.00791     -2155.6253      4349.2626    
     83940   294.15944     -929.10203     -979.93092      4344.3259    
     83950   269.29069     -928.40888      359.38477      4338.8014    
     83960   276.51068     -928.59082      1493.3711      4333.5106    
     83970   290.92307     -928.95461      2429.9931      4329.1634    
     83980   282.36168     -928.6682       3169.8856      4326.3416    
     83990   294.32025     -928.94385      3422.7211      4325.4822    
     84000   293.11544     -928.84474      3250.2976      4326.7449    
     84010   287.09847     -928.60606      2607.5893      4330.0198    
     84020   310.76242     -929.17918      1427.2684      4334.9029    
     84030   309.78441     -929.05621      39.369397      4340.6785    
     84040   270.31399     -927.86245     -1314.45        4346.491     
     84050   279.9255      -928.02232     -2697.279       4351.477     
     84060   291.27981     -928.20968     -3552.0417      4354.7936    
     84070   272.84993     -927.56948     -3628.34        4355.9101    
     84080   303.07662     -928.28188     -3280.8516      4354.7546    
     84090   323.25744     -928.7137      -2432.5402      4351.5578    
     84100   295.5951      -927.83773     -1131.5403      4346.8612    
     84110   315.65528     -928.30333      98.964191      4341.4589    
     84120   337.03687     -928.81369      1282.1771      4336.1318    
     84130   294.16782     -927.56017      2423.6649      4331.6237    
     84140   307.29385     -927.87653      2977.2005      4328.6112    
     84150   333.70521     -928.57093      3077.1177      4327.445     
     84160   296.8461      -927.52617      3007.785       4328.2031    
     84170   287.82369     -927.2637       2412.7132      4330.819     
     84180   307.54199     -927.79672      1390.373       4334.9309    
     84190   309.23483     -927.8284       301.52835      4339.9229    
     84200   321.82527     -928.16714     -802.08793      4345.1153    
     84210   333.07418     -928.47948     -1832.7017      4349.8165    
     84220   309.68111     -927.84214     -2551.0439      4353.3891    
     84230   318.62505     -928.11438     -3087.3123      4355.3637    
     84240   321.4916      -928.23182     -3227.4521      4355.4118    
     84250   296.78797     -927.59381     -2843.9517      4353.4516    
     84260   298.9663      -927.70451     -2104.4846      4349.7171    
     84270   306.64988     -927.96877     -962.58074      4344.6839    
     84280   291.45972     -927.59329      528.15145      4339.0751    
     84290   305.60539     -928.02683      1807.3035      4333.7969    
     84300   330.37114     -928.76369      2651.4201      4329.6377    
     84310   310.89892     -928.28762      3264.908       4327.1349    
     84320   290.04145     -927.78034      3502.7599      4326.6603    
     84330   292.34839     -927.91765      3078.42        4328.3454    
     84340   308.55219     -928.44517      2075.3046      4331.9339    
     84350   312.10735     -928.62978      873.07263      4336.8251    
     84360   296.88711     -928.29435     -299.59451      4342.2828    
     84370   300.99408     -928.49439     -1508.0499      4347.564     
     84380   300.80434     -928.57663     -2525.2319      4351.9187    
     84390   287.37654     -928.29007     -3225.842       4354.7046    
     84400   288.46387     -928.4045      -3520.1587      4355.4775    
     84410   290.92291     -928.55848     -3217.3832      4354.0593    
     84420   279.36403     -928.3173      -2391.1757      4350.6391    
     84430   291.21216     -928.71948     -1355.5603      4345.7231    
     84440   284.49968     -928.59765     -36.292411      4339.976     
     84450   266.07776     -928.13236      1409.454       4334.2217    
     84460   291.05244     -928.85748      2550.9608      4329.3414    
     84470   308.49571     -929.37275      3308.4944      4326.0432    
     84480   277.65249     -928.54833      3666.2295      4324.7979    
     84490   281.65391     -928.68996      3362.7375      4325.8113    
     84500   294.08664     -929.06341      2602.497       4328.9108    
     84510   281.16343     -928.72802      1561.3569      4333.6387    
     84520   291.65641     -929.03617      155.7519       4339.3423    
     84530   291.21239     -929.03241     -1250.6536      4345.1639    
     84540   265.67156     -928.32171     -2394.9707      4350.2304    
     84550   268.8279      -928.39367     -3314.0601      4353.8088    
     84560   277.33254     -928.59334     -3744.8634      4355.326     
     84570   273.52427     -928.42709     -3467.4572      4354.5173    
     84580   291.39228     -928.83238     -2697.4431      4351.5433    
     84590   298.54967     -928.90415     -1540.9009      4346.8886    
     84600   287.48901     -928.44699     -116.21436      4341.2822    
     84610   305.40387     -928.77656      1271.8613      4335.6053    
     84620   315.62521     -928.88008      2471.3457      4330.7226    
     84630   299.46523     -928.26777      3232.1509      4327.3693    
     84640   301.10968     -928.17146      3425.5569      4326.0096    
     84650   297.4597      -927.94347      3238.7266      4326.7774    
     84660   297.70312     -927.83951      2616.52        4329.556     
     84670   302.0316      -927.85807      1574.2743      4333.9641    
     84680   300.47544     -927.71963      345.3196       4339.3693    
     84690   300.89852     -927.64019     -845.7482       4345.0161    
     84700   320.49322     -928.0962      -1932.3956      4350.1562    
     84710   327.43886     -928.2108      -2776.1314      4354.1069    
     84720   313.50664     -927.76493     -3251.0534      4356.3348    
     84730   322.32292     -927.96878     -3342.003       4356.5316    
     84740   322.35955     -927.94437     -2944.1633      4354.6429    
     84750   313.30695     -927.68235     -2100.0069      4350.9178    
     84760   318.83374     -927.83504     -957.43486      4345.8826    
     84770   307.11092     -927.51192      428.78622      4340.2598    
     84780   322.52979     -927.94641      1700.4644      4334.9025    
     84790   336.16475     -928.34434      2622.4241      4330.5954    
     84800   309.38839     -927.63708      3152.3791      4327.9134    
     84810   301.13466     -927.45447      3190.5429      4327.1792    
     84820   310.95941     -927.78282      2864.8363      4328.4277    
     84830   296.59335     -927.44576      2264.6928      4331.466     
     84840   301.32483     -927.63872      1254.2238      4335.9187    
     84850   330.78033     -928.52726     -42.351483      4341.165     
     84860   306.45372     -927.93082     -1118.1908      4346.4237    
     84870   300.37393     -927.8407      -2110.8076      4351.004     
     84880   327.82995     -928.69187     -3002.0506      4354.2731    
     84890   316.57287     -928.48521     -3385.8115      4355.6838    
     84900   293.22052     -927.9461      -3179.5196      4354.9896    
     84910   304.10073     -928.35716     -2567.431       4352.3055    
     84920   302.87328     -928.43262     -1623.609       4348.0152    
     84930   285.87591     -928.05749     -491.81703      4342.709     
     84940   291.42659     -928.29404      653.59758      4337.0907    
     84950   286.53895     -928.22556      1820.2839      4331.8829    
     84960   283.61448     -928.19696      2798.5915      4327.8036    
     84970   293.25168     -928.50886      3402.8703      4325.4533    
     84980   290.88124     -928.48404      3608.2208      4325.2111    
     84990   291.57608     -928.54117      3218.4301      4327.2002    
     85000   312.58483     -929.16407      2183.1531      4331.1821    
     85010   298.40548     -928.80897      940.15259      4336.5479    
     85020   288.00579     -928.55205     -475.85807      4342.5244    
     85030   291.17748     -928.66111     -1917.3059      4348.2301    
     85040   281.5323      -928.40415     -3030.5935      4352.7706    
     85050   273.5872      -928.18563     -3631.5681      4355.4414    
     85060   280.50338     -928.37246     -3660.2828      4355.8539    
     85070   286.79511     -928.53613     -3125.7504      4353.9818    
     85080   287.65862     -928.54285     -2176.3617      4350.1526    
     85090   298.7784      -928.82735     -1016.921       4344.9539    
     85100   300.2324      -928.83496      350.39562      4339.121     
     85110   307.25488     -928.99196      1670.2397      4333.5       
     85120   303.92992     -928.85967      2716.6916      4328.9062    
     85130   274.92392     -928.01311      3404.1538      4325.9909    
     85140   273.33109     -927.92079      3538.6191      4325.1727    
     85150   295.66172     -928.47679      3173.7514      4326.5453    
     85160   303.18929     -928.60618      2416.9011      4329.8971    
     85170   295.06114     -928.28971      1255.7424      4334.7638    
     85180   287.14967     -927.96223     -46.371716      4340.4428    
     85190   296.80294     -928.09759     -1251.9088      4346.1324    
     85200   309.91757     -928.30206     -2225.5286      4351.0764    
     85210   310.38903     -928.14402     -2920.9778      4354.6549    
     85220   321.1704      -928.27461     -3392.9905      4356.4127    
     85230   326.8178      -928.27593     -3362.1783      4356.0579    
     85240   312.77796     -927.75806     -2761.6014      4353.6063    
     85250   308.58454     -927.53931     -1842.493       4349.4192    
     85260   321.90126     -927.82245     -665.90326      4344.0734    
     85270   317.04717     -927.61634      807.69755      4338.317     
     85280   326.1254      -927.81533      2109.818       4333.0487    
     85290   322.52358     -927.68017      2990.9518      4329.073     
     85300   310.176       -927.32058      3388.2136      4326.9393    
     85310   314.96034     -927.45063      3310.8792      4326.9006    
     85320   316.41364     -927.50007      2858.3223      4328.9226    
     85330   314.60016     -927.46796      2012.2497      4332.7338    
     85340   323.41627     -927.73823      805.89719      4337.816     
     85350   316.51265     -927.57609     -372.94681      4343.444     
     85360   315.13236     -927.56916     -1453.2815      4348.8803    
     85370   332.00831     -928.07428     -2467.1901      4353.4366    
     85380   343.86998     -928.45748     -3270.9655      4356.4689    
     85390   325.5706      -928.02184     -3537.2242      4357.4766    
     85400   320.85763     -927.97563     -3328.5418      4356.2729    
     85410   312.05136     -927.82257     -2636.6904      4352.9836    
     85420   291.0767      -927.32369     -1540.6381      4348.0388    
     85430   300.84052     -927.66539     -322.88225      4342.1136    
     85440   315.4405      -928.1362       985.64544      4335.9743    
     85450   289.95292     -927.48473      2402.5401      4330.4472    
     85460   293.92678     -927.63976      3438.7792      4326.3909    
     85470   325.56192     -928.56637      3911.6737      4324.4467    
     85480   316.70282     -928.38183      3902.517       4324.9238    
     85490   300.76439     -928.00731      3242.1525      4327.8193    
     85500   313.0984      -928.42004      1993.5391      4332.7394    
     85510   307.31357     -928.3284       602.57781      4338.9454    
     85520   295.47286     -928.0594      -895.53508      4345.5729    
     85530   315.00298     -928.65483     -2501.6121      4351.6759    
     85540   314.30119     -928.69173     -3713.0665      4356.2587    
     85550   282.36617     -927.85979     -4204.1205      4358.5562    
     85560   286.337       -928.02148     -4127.5135      4358.2275    
     85570   286.20132     -928.06451     -3423.1381      4355.3145    
     85580   281.3678      -927.96848     -2240.794       4350.2471    
     85590   298.76857     -928.4793      -775.25811      4343.7605    
     85600   311.79747     -928.86162      906.13689      4336.7779    
     85610   307.13537     -928.74982      2490.7812      4330.3403    
     85620   308.32816     -928.80354      3542.2897      4325.4162    
     85630   287.41286     -928.2464       4080.4274      4322.6674    
     85640   267.57603     -927.71539      4110.5511      4322.4367    
     85650   289.29187     -928.33275      3535.3029      4324.7489    
     85660   302.12209     -928.6997       2556.7504      4329.2755    
     85670   288.43565     -928.32654      1295.0023      4335.4303    
     85680   302.18472     -928.70805     -330.20974      4342.429     
     85690   312.07781     -928.97521     -1966.9767      4349.2746    
     85700   299.7836      -928.62643     -3262.5336      4354.9462    
     85710   288.43406     -928.30532     -4144.1352      4358.6106    
     85720   279.0428      -928.03814     -4518.3529      4359.694     
     85730   273.94583     -927.88586     -4222.5335      4357.9509    
     85740   287.66379     -928.24628     -3214.681       4353.5587    
     85750   298.94217     -928.52112     -1565.8228      4347.1492    
     85760   308.96276     -928.7402       345.27062      4339.7427    
     85770   319.83152     -928.96172      2121.6347      4332.5228    
     85780   310.77768     -928.61573      3508.7333      4326.5914    
     85790   296.28631     -928.11029      4314.987       4322.8071    
     85800   297.61347     -928.03219      4464.1456      4321.6739    
     85810   292.63094     -927.76368      4016.8941      4323.3016    
     85820   295.91207     -927.71161      2994.6699      4327.4297    
     85830   302.45649     -927.73441      1643.2981      4333.4543    
     85840   306.6215      -927.68464      197.52231      4340.5588    
     85850   328.48202     -928.12772     -1337.6399      4347.8416    
     85860   334.51558     -928.14574     -2743.6696      4354.3429    
     85870   312.8854      -927.42813     -3741.2563      4359.1769    
     85880   333.59095     -927.91528     -4374.8746      4361.6859    
     85890   346.52387     -928.21532     -4358.6273      4361.466     
     85900   318.41223     -927.41112     -3648.2117      4358.5155    
     85910   316.63842     -927.35923     -2650.3619      4353.2506    
     85920   327.19414     -927.66047     -1297.454       4346.306     
     85930   297.88644     -926.85695      557.45961      4338.5477    
     85940   299.1002      -926.89465      2376.5807      4331.111     
     85950   322.23671     -927.53853      3841.7944      4325.1215    
     85960   325.57019     -927.64446      4890.7443      4321.4949    
     85970   340.23484     -928.09108      5216.1519      4320.8754    
     85980   353.80323     -928.54683      4592.3224      4323.4699    
     85990   326.83508     -927.90896      3153.7118      4328.9232    
     86000   310.82496     -927.58301      1160.1717      4336.3741    
     86010   300.90479     -927.41795     -897.02826      4344.6159    
     86020   293.97127     -927.31852     -2659.1191      4352.3753    
     86030   318.22017     -928.07997     -4056.0826      4358.5275    
     86040   324.65389     -928.35775     -4830.1793      4362.1803    
     86050   309.33675     -928.03978     -4854.8388      4362.826     
     86060   312.21182     -928.23192     -4297.0368      4360.4193    
     86070   304.18628     -928.12039     -3233.2393      4355.3001    
     86080   288.73755     -927.7862      -1733.4898      4348.1357    
     86090   296.12677     -928.06562      65.373225      4339.867     
     86100   286.71192     -927.85496      2043.0812      4331.6244    
     86110   286.25313     -927.87027      3787.8807      4324.6258    
     86120   319.57853     -928.81871      4932.3378      4319.9415    
     86130   321.04148     -928.89468      5402.8071      4318.2876    
     86140   307.54934     -928.57018      5000.9236      4319.9582    
     86150   313.26815     -928.78995      3773.954       4324.7273    
     86160   289.52226     -928.18853      2141.1528      4331.8823    
     86170   279.84865     -927.96006      123.23567      4340.4216    
     86180   297.87424     -928.48107     -2073.15        4349.0973    
     86190   284.32441     -928.10915     -3849.2775      4356.5512    
     86200   285.91354     -928.14949     -5018.538       4361.6465    
     86210   304.66092     -928.66982     -5474.3923      4363.6195    
     86220   274.61313     -927.84073     -5006.7806      4362.1725    
     86230   283.03555     -928.08027     -3958.8524      4357.566     
     86240   316.70065     -929.01571     -2352.0935      4350.4609    
     86250   293.0594      -928.35311     -141.31238      4341.8822    
     86260   297.02542     -928.44644      1965.5353      4333.185     
     86270   329.83059     -929.33479      3592.889       4325.6724    
     86280   297.1302      -928.41055      4838.1293      4320.3708    
     86290   287.06656     -928.12355      5245.4897      4318.0296    
     86300   311.73145     -928.80945      4817.723       4318.9109    
     86310   272.54393     -927.72648      4006.547       4322.796     
     86320   264.62301     -927.5056       2542.9023      4329.1833    
     86330   294.18105     -928.30253      617.51359      4337.191     
     86340   297.07398     -928.33559     -1209.9615      4345.6566    
     86350   313.64179     -928.73433     -2892.2465      4353.4276    
     86360   329.03841     -929.09543     -4264.6626      4359.4345    
     86370   292.46741     -928.02121     -4956.5782      4362.8085    
     86380   284.23944     -927.74039     -5079.0611      4363.0785    
     86390   307.94872     -928.33707     -4522.4385      4360.1568    
     86400   301.58702     -928.08685     -3122.0398      4354.4006    
     86410   299.81943     -927.94905     -1280.496       4346.6738    
     86420   314.93207     -928.25279      648.20617      4338.1234    
     86430   318.50075     -928.21117      2576.3319      4329.9625    
     86440   310.34154     -927.83511      4221.2765      4323.3844    
     86450   315.21579     -927.82165      5180.0219      4319.3912    
     86460   316.96336     -927.7302       5422.4961      4318.5849    
     86470   324.62631     -927.82154      4855.0887      4321.1229    
     86480   312.03538     -927.36964      3554.1878      4326.6795    
     86490   313.64516     -927.32573      1675.1313      4334.4752    
     86500   332.24261     -927.75422     -392.63094      4343.3739    
     86510   328.86645     -927.57951     -2320.666       4352.0976    
     86520   328.44212     -927.50252     -3961.5329      4359.4253    
     86530   327.85205     -927.44055     -5037.4837      4364.3121    
     86540   322.25966     -927.2646      -5414.1392      4366.0575    
     86550   332.56259     -927.55743     -5096.6574      4364.4016    
     86560   329.76261     -927.51298     -3998.931       4359.5419    
     86570   315.52726     -927.16571     -2295.9362      4352.1657    
     86580   338.93656     -927.8724      -380.70055      4343.3317    
     86590   330.15916     -927.69678      1778.0954      4334.2582    
     86600   292.34006     -926.70876      3776.7026      4326.2804    
     86610   329.1091      -927.7969       4942.6828      4320.6044    
     86620   339.81589     -928.18951      5501.0272      4317.9733    
     86630   304.73114     -927.33042      5423.8582      4318.7381    
     86640   326.9378      -928.07375      4382.81        4322.846     
     86650   342.71532     -928.6609       2745.9731      4329.6936    
     86660   297.46145     -927.53996      885.62912      4338.3038    
     86670   319.35726     -928.25891     -1432.9126      4347.5017    
     86680   315.04665     -928.23291     -3521.9739      4355.8662    
     86690   263.13726     -926.8511      -4923.5977      4362.0838    
     86700   288.94531     -927.60491     -5790.3806      4365.2278    
     86710   320.45669     -928.52038     -5705.6769      4364.7521    
     86720   290.55122     -927.73466     -4548.1849      4360.7074    
     86730   311.99495     -928.374       -2966.9739      4353.7868    
     86740   326.90852     -928.83055     -922.18746      4345.0045    
     86750   293.91501     -927.94575      1455.4819      4335.6536    
     86760   314.84128     -928.54696      3354.8002      4327.181     
     86770   321.83634     -928.76425      4727.398       4320.773     
     86780   281.38248     -927.66747      5545.1043      4317.2809    
     86790   307.95842     -928.43882      5384.9179      4317.187     
     86800   321.66794     -928.86893      4566.5667      4320.4217    
     86810   269.11743     -927.46079      3329.5143      4326.5116    
     86820   289.44246     -928.0651       1274.0335      4334.6761    
     86830   300.3882      -928.39174     -917.24538      4343.6846    
     86840   271.35259     -927.59053     -2752.5095      4352.1864    
     86850   299.12404     -928.35454     -4315.2316      4359.0017    
     86860   317.13819     -928.8493      -5225.0491      4363.1436    
     86870   284.99905     -927.96225     -5248.5891      4364.0307    
     86880   309.35705     -928.65555     -4767.4641      4361.609     
     86890   322.72093     -929.05466     -3549.2198      4356.1983    
     86900   287.93348     -928.12164     -1669.2288      4348.5721    
     86910   287.04683     -928.11932      205.39806      4339.8863    
     86920   302.24491     -928.55095      1977.1216      4331.3215    
     86930   285.56684     -928.08656      3739.5599      4323.9958    
     86940   300.03405     -928.48449      4944.7685      4318.9719    
     86950   311.28647     -928.80112      5406.1279      4316.9884    
     86960   289.13035     -928.20371      5156.3833      4318.3379    
     86970   286.5271      -928.15544      4090.9317      4322.8709    
     86980   299.23762     -928.52983      2334.9465      4329.9492    
     86990   281.76566     -928.05405      313.07235      4338.5176    
     87000   283.67462     -928.09909     -1760.4183      4347.324     
     87010   296.1782      -928.42018     -3500.057       4355.0786    
     87020   292.05497     -928.27061     -4593.0657      4360.6847    
     87030   308.81014     -928.70199     -5155.5158      4363.422     
     87040   319.70932     -928.9793      -5058.7189      4362.9275    
     87050   304.62835     -928.54942     -4180.799       4359.2641    
     87060   292.85051     -928.21606     -2778.2853      4352.9757    
     87070   290.47946     -928.1344      -1093.3127      4344.9439    
     87080   290.60894     -928.10415      819.26287      4336.2371    
     87090   292.73472     -928.10924      2790.8713      4328.0517    
     87100   294.47491     -928.08788      4407.9173      4321.5954    
     87110   299.42314     -928.14872      5321.7924      4317.8523    
     87120   308.02892     -928.31264      5423.6284      4317.382     
     87130   309.16921     -928.27586      4796.3158      4320.2586    
     87140   303.01499     -928.04192      3520.8249      4326.111     
     87150   306.20727     -928.06381      1670.7932      4334.165     
     87160   328.21807     -928.59672     -506.66267      4343.2897    
     87170   325.52403     -928.43907     -2546.6798      4352.1446    
     87180   293.97754     -927.48642     -4149.2321      4359.4485    
     87190   295.27449     -927.44975     -5295.0717      4364.1675    
     87200   309.57625     -927.77668     -5713.3737      4365.5725    
     87210   302.02809     -927.50797     -5208.7838      4363.3995    
     87220   312.6198      -927.75325     -3950.1095      4357.9583    
     87230   324.25229     -928.02868     -2018.2833      4350.0541    
     87240   316.29703     -927.75988      276.45452      4340.9029    
     87250   320.09644     -927.81495      2435.2288      4331.9293    
     87260   339.89642     -928.31804      4149.3275      4324.469     
     87270   331.61025     -928.06106      5233.5424      4319.5745    
     87280   318.05896     -927.68618      5518.5183      4317.9038    
     87290   312.29339     -927.5513       5004.4828      4319.633     
     87300   304.15758     -927.36565      3847.4995      4324.4608    
     87310   309.15155     -927.55172      2142.0679      4331.6837    
     87320   312.61045     -927.69715      163.58415      4340.2648    
     87330   307.91148     -927.6166      -1792.7294      4348.9825    
     87340   314.77627     -927.86157     -3478.9676      4356.6117    
     87350   325.50641     -928.23439     -4672.06        4362.0841    
     87360   305.19321     -927.76981     -5202.6415      4364.6396    
     87370   313.27544     -928.1185      -5240.2497      4363.9188    
     87380   323.37466     -928.55804     -4526.2288      4359.9132    
     87390   294.85542     -927.93706     -2933.309       4353.092     
     87400   288.39272     -927.91256     -935.72839      4344.4483    
     87410   297.82646     -928.31043      1173.3876      4335.2372    
     87420   291.44871     -928.24441      3221.1173      4326.7788    
     87430   300.88354     -928.59694      4755.1749      4320.3218    
     87440   315.29558     -929.08646      5530.3815      4316.7977    
     87450   293.70567     -928.57573      5558.4805      4316.6831    
     87460   279.66371     -928.26436      4686.6425      4319.9869    
     87470   286.97586     -928.53308      3047.1869      4326.1828    
     87480   274.59414     -928.23305      1124.4915      4334.2898    
     87490   278.28332     -928.35415     -888.4239       4343.1212    
     87500   289.40092     -928.66047     -2691.6499      4351.4271    
     87510   276.89047     -928.29627     -3991.4089      4358.0783    
     87520   293.27662     -928.72898     -4910.8246      4362.2297    
     87530   325.92252     -929.62042     -5252.4775      4363.2994    
     87540   306.91398     -929.09617     -4706.3125      4361.0881    
     87550   282.48522     -928.43211     -3576.9871      4355.9283    
     87560   283.673       -928.47333     -2113.4646      4348.534     
     87570   270.377       -928.09534     -230.48243      4339.8491    
     87580   260.76616     -927.79522      1843.1434      4331.055     
     87590   290.10674     -928.55318      3682.8285      4323.4253    
     87600   287.64696     -928.41362      5167.0044      4318.096     
     87610   288.37484     -928.36646      5758.7714      4315.9464    
     87620   313.89285     -929.0141       5378.4954      4317.3327    
     87630   310.8134      -928.87941      4423.3948      4322.0452    
     87640   291.31423     -928.29847      2833.6942      4329.4968    
     87650   318.53386     -929.01022      486.33562      4338.6948    
     87660   305.4202      -928.59026     -1813.9639      4348.2227    
     87670   275.59355     -927.70171     -3770.8067      4356.6394    
     87680   292.54157     -928.10369     -5316.3016      4362.6957    
     87690   293.92577     -928.07099     -5907.8547      4365.4319    
     87700   277.50832     -927.55273     -5477.8284      4364.4716    
     87710   314.50629     -928.52114     -4443.8315      4360.0689    
     87720   320.57815     -928.62891     -2735.5021      4352.9039    
     87730   289.70947     -927.71475     -589.98954      4344.0641    
     87740   318.34284     -928.44523      1351.2164      4334.8757    
     87750   320.92213     -928.44397      3202.3561      4326.5696    
     87760   274.62359     -927.0908       4797.5437      4320.2854    
     87770   299.39629     -927.71445      5493.8185      4316.9605    
     87780   328.89921     -928.47088      5546.387       4317.0312    
     87790   302.25307     -927.68673      5089.2205      4320.5337    
     87800   326.25592     -928.32383      3547.2531      4327.1518    
     87810   355.09128     -929.09996      1256.5157      4335.9516    
     87820   309.52054     -927.81967     -941.3644       4345.5558    
     87830   300.02301     -927.54233     -3091.708       4354.57      
     87840   302.87463     -927.60102     -4849.6415      4361.6482    
     87850   294.34191     -927.34704     -5807.4243      4365.6885    
     87860   301.51463     -927.53908     -5929.2084      4366.0802    
     87870   310.14059     -927.7838      -5156.2257      4362.7574    
     87880   298.03745     -927.45865     -3465.6785      4356.2351    
     87890   324.82924     -928.21273     -1387.3079      4347.5762    
     87900   336.62638     -928.55159      818.95275      4338.1007    
     87910   316.18614     -928.00586      2912.1542      4329.1895    
     87920   318.87835     -928.1185       4521.8768      4322.1226    
     87930   313.8021      -928.03889      5496.3273      4317.8773    
     87940   298.78688     -927.70725      5672.4983      4317.0287    
     87950   299.13126     -927.82077      4951.075       4319.6659    
     87960   309.08201     -928.21514      3476.9166      4325.3433    
     87970   308.08508     -928.31291      1628.4437      4333.1653    
     87980   292.62722     -927.99971     -336.2999       4341.9932    
     87990   292.46358     -928.09444     -2301.5675      4350.5961    
     88000   300.00163     -928.39157     -3927.3751      4357.7502    
     88010   301.57435     -928.52255     -4954.0647      4362.435     
     88020   293.97002     -928.40037     -5304.0623      4364.0046    
     88030   304.78568     -928.79709     -5072.2815      4362.2385    
     88040   299.35401     -928.75011     -4053.4837      4357.317     
     88050   272.30508     -928.09106     -2338.2644      4349.9066    
     88060   276.86324     -928.28596     -378.80762      4341.0881    
     88070   285.88553     -928.58322      1659.613       4332.1009    
     88080   275.40498     -928.31642      3632.782       4324.2163    
     88090   294.77448     -928.86894      5022.0468      4318.6178    
     88100   293.38463     -928.84633      5687.3329      4316.141     
     88110   286.76437     -928.68582      5430.6071      4317.163     
     88120   300.46845     -929.09562      4284.3585      4321.5106    
     88130   295.44131     -928.98595      2615.4699      4328.486     
     88140   271.65756     -928.34328      667.2503       4337.0604    
     88150   286.15101     -928.74367     -1441.8384      4346.0166    
     88160   284.91443     -928.68684     -3272.4948      4354.051     
     88170   274.75702     -928.36996     -4628.5104      4360.0137    
     88180   298.97372     -929.00279     -5420.1843      4363.05      
     88190   292.82237     -928.7944      -5312.5018      4362.6905    
     88200   275.63445     -928.28497     -4426.7955      4359.0171    
     88210   278.51719     -928.32482     -2975.4327      4352.6091    
     88220   280.49767     -928.31889     -1078.4865      4344.4077    
     88230   282.55132     -928.29017      1011.9967      4335.6162    
     88240   304.30049     -928.78446      2921.6684      4327.529     
     88250   296.74845     -928.45256      4500.7379      4321.3211    
     88260   296.88073     -928.34038      5331.7685      4317.9255    
     88270   311.97474     -928.65107      5311.9736      4317.8232    
     88280   299.69373     -928.21642      4674.8355      4320.9924    
     88290   307.52759     -928.35447      3320.6309      4327.0151    
     88300   328.18341     -928.85092      1379.4077      4335.0466    
     88310   296.71512     -927.90465     -676.23102      4343.8968    
     88320   293.18572     -927.73592     -2703.3407      4352.2756    
     88330   316.62611     -928.3107      -4304.1902      4358.9242    
     88340   290.51201     -927.51792     -5074.2469      4362.8584    
     88350   295.4221      -927.60194     -5261.7927      4363.5864    
     88360   322.94132     -928.32455     -4777.2084      4361.0194    
     88370   288.38515     -927.3364      -3359.8009      4355.5163    
     88380   285.91381     -927.24076     -1522.9103      4347.9788    
     88390   333.20256     -928.51607      357.67666      4339.5702    
     88400   325.72594     -928.27098      2362.2546      4331.4915    
     88410   328.8901      -928.33554      3975.5431      4324.9573    
     88420   341.98012     -928.69814      4898.8203      4320.9306    
     88430   302.40427     -927.62181      5195.7022      4319.9592    
     88440   298.19277     -927.54011      4556.7957      4322.1756    
     88450   319.38133     -928.17231      3175.1479      4327.1687    
     88460   292.85779     -927.47905      1562.2151      4334.0941    
     88470   304.20275     -927.82959     -356.71705      4341.9267    
     88480   324.37224     -928.42193     -2157.6591      4349.4836    
     88490   290.755       -927.5196      -3393.4353      4355.6571    
     88500   295.84116     -927.68948     -4302.7388      4359.6569    
     88510   329.37538     -928.66031     -4742.5075      4360.9307    
     88520   298.06316     -927.84563     -4249.3812      4359.2556    
     88530   287.90681     -927.61945     -3192.4169      4354.9541    
     88540   324.32939     -928.68925     -1863.5164      4348.7116    
     88550   310.29545     -928.3601      -104.09821      4341.4076    
     88560   299.22524     -928.10792      1574.881       4334.1306    
     88570   314.20274     -928.57797      2840.3427      4327.9088    
     88580   296.23394     -928.13394      3867.0622      4323.5248    
     88590   286.10416     -927.90598      4398.6422      4321.5722    
     88600   290.88529     -928.09168      4199.8115      4322.3357    
     88610   293.09992     -928.20454      3411.9428      4325.6723    
     88620   309.34696     -928.70677      2162.5987      4331.0765    
     88630   313.36602     -928.8699       617.35848      4337.7636    
     88640   294.38841     -928.38854     -1015.6164      4344.7712    
     88650   288.81128     -928.2669      -2559.7452      4351.08      
     88660   292.52896     -928.39366     -3721.8666      4355.7378    
     88670   280.61069     -928.07974     -4207.7497      4358.042     
     88680   280.65491     -928.09316     -4063.2372      4357.706     
     88690   296.13614     -928.53169     -3390.3517      4354.8479    
     88700   305.28601     -928.79355     -2176.7383      4349.93      
     88710   302.43796     -928.72073     -657.64754      4343.7354    
     88720   304.13402     -928.7699       756.30281      4337.2144    
     88730   302.35822     -928.71982      1967.096       4331.2501    
     88740   276.96469     -928.00815      3059.3665      4326.5933    
     88750   267.00915     -927.71777      3724.2148      4323.8816    
     88760   280.053       -928.0591       3789.2282      4323.4884    
     88770   301.17508     -928.62377      3368.6096      4325.4303    
     88780   310.18856     -928.85639      2598.468       4329.4293    
     88790   322.75026     -929.19703      1408.9895      4334.9806    
     88800   302.09466     -928.61997     -45.211021      4341.3402    
     88810   293.47612     -928.37536     -1685.2534      4347.5914    
     88820   292.99175     -928.34968     -3032.2042      4352.7325    
     88830   276.52838     -927.87513     -3708.8449      4355.9467    
     88840   278.86763     -927.91785     -3847.902       4356.8194    
     88850   299.76281     -928.47147     -3530.4011      4355.2877    
     88860   294.79353     -928.30523     -2662.6858      4351.5937    
     88870   289.63795     -928.13129     -1425.7629      4346.3072    
     88880   309.88051     -928.65477     -18.354222      4340.2201    
     88890   302.61546     -928.40827      1527.2525      4334.2273    
     88900   288.57192     -927.971        2774.4016      4329.2651    
     88910   316.56576     -928.6993       3397.0435      4326.0702    
     88920   318.3183      -928.70385      3663.0949      4325.0182    
     88930   305.55868     -928.31984      3421.7984      4326.2325    
     88940   310.74408     -928.44336      2484.709       4329.5227    
     88950   290.41485     -927.85936      1269.513       4334.3076    
     88960   273.73626     -927.36965      4.1059502      4339.8262    
     88970   292.77712     -927.85592     -1246.1809      4345.2821    
     88980   302.73279     -928.07599     -2176.1752      4349.9105    
     88990   308.37043     -928.17326     -2783.7983      4353.1362    
     89000   330.70037     -928.73922     -3168.027       4354.5851    
     89010   315.66825     -928.28062     -3009.5586      4354.0595    
     89020   301.79202     -927.86738     -2425.2303      4351.6798    
     89030   311.63254     -928.11596     -1634.5127      4347.8291    
     89040   302.81693     -927.84616     -557.77057      4343.0347    
     89050   299.00973     -927.71282      630.77765      4337.9773    
     89060   319.37627     -928.24765      1627.3394      4333.3841    
     89070   311.99919     -928.01463      2531.7089      4329.8755    
     89080   302.27303     -927.72301      3146.7079      4327.9841    
     89090   329.48784     -928.46559      3061.4131      4328.0408    
     89100   319.24315     -928.18169      2510.066       4329.9808    
     89110   291.63009     -927.42656      1671.2689      4333.4471    
     89120   295.17182     -927.53554      582.35588      4337.9001    
     89130   300.52707     -927.68922     -503.41593      4342.6644    
     89140   304.76114     -927.80956     -1427.9443      4347.0663    
     89150   322.62351     -928.31327     -2214.8524      4350.5268    
     89160   328.10259     -928.48898     -2669.9373      4352.5752    
     89170   318.88586     -928.27947     -2679.3293      4352.9488    
     89180   306.89274     -928.01278     -2294.6061      4351.6617    
     89190   294.97479     -927.75806     -1684.5804      4348.9717    
     89200   312.0828      -928.31949     -1016.5692      4345.2733    
     89210   320.03407     -928.64566     -161.14648      4341.0102    
     89220   290.19087     -927.92971      846.10431      4336.7261    
     89230   288.23953     -927.98281      1554.7595      4333.0217    
     89240   300.59181     -928.43712      1998.7733      4330.3295    
     89250   268.83151     -927.65725      2459.052       4328.9282    
     89260   275.50368     -927.92797      2489.7261      4329.0554    
     89270   308.68265     -928.93398      2104.4798      4330.7114    
     89280   298.82028     -928.74531      1619.6051      4333.6572    
     89290   297.90122     -928.80054      803.11134      4337.5618    
     89300   314.18083     -929.33289     -364.14387      4341.9038    
     89310   297.77777     -928.95574     -1462.6001      4345.9741    
     89320   277.82611     -928.4684      -2308.5182      4349.0943    
     89330   277.34742     -928.50914     -2725.5896      4350.7536    
     89340   267.12834     -928.26579     -2639.6073      4350.7126    
     89350   267.04983     -928.28824     -2212.8596      4349.0395    
     89360   292.17236     -928.99898     -1551.1426      4346.0186    
     89370   288.5907      -928.90336     -524.79212      4342.0961    
     89380   284.6719      -928.78986      519.90397      4337.9084    
     89390   303.34258     -929.29694      1268.2339      4334.0925    
     89400   283.71652     -928.73647      1950.9887      4331.1239    
     89410   256.03554     -927.94432      2408.455       4329.4046    
     89420   285.99034     -928.7393       2296.7944      4329.1776    
     89430   293.7996      -928.90447      2041.9566      4330.3812    
     89440   271.18275     -928.21905      1705.1217      4332.8429    
     89450   295.09892     -928.81448      916.82985      4336.3161    
     89460   308.821       -929.10944     -21.032336      4340.3176    
     89470   288.07006     -928.44326     -813.68246      4344.2737    
     89480   301.42647     -928.71941     -1632.9789      4347.6754    
     89490   303.6763      -928.677       -2256.2573      4350.0284    
     89500   279.64019     -927.90637     -2518.0876      4350.9621    
     89510   291.54163     -928.13079     -2503.1083      4350.3217    
     89520   301.35749     -928.28708     -1975.1633      4348.1514    
     89530   285.72242     -927.73781     -947.51068      4344.8054    
     89540   316.67016     -928.48313      38.294185      4340.9116    
     89550   329.23434     -928.72119      950.07624      4337.0959    
     89560   292.08058     -927.60313      1742.7092      4333.9238    
     89570   306.89274     -927.94641      2105.4779      4331.8604    
     89580   324.86644     -928.38891      2192.1048      4331.1247    
     89590   294.11407     -927.49782      2161.2095      4331.7651    
     89600   298.83012     -927.60383      1629.4958      4333.7213    
     89610   325.55073     -928.32768      829.29167      4336.6621    
     89620   300.50362     -927.62345      270.85535      4340.1106    
     89630   294.95311     -927.46397     -387.28589      4343.6907    
     89640   330.46924     -928.44745     -1286.4704      4346.98      
     89650   320.50203     -928.17705     -1888.6541      4349.4511    
     89660   318.06779     -928.12847     -2172.8703      4350.731     
     89670   325.55209     -928.36641     -2139.6283      4350.6547    
     89680   312.49227     -928.04358     -1812.3954      4349.2575    
     89690   303.49863     -927.83742     -1362.1286      4346.7508    
     89700   301.76641     -927.83156     -756.0658       4343.4335    
     89710   300.5393      -927.83673      108.37468      4339.7024    
     89720   300.6806      -927.87627      1024.5379      4336.0923    
     89730   299.66456     -927.88173      1713.1959      4333.1566    
     89740   297.80755     -927.86169      2143.4875      4331.3152    
     89750   311.62053     -928.28016      2257.3316      4330.8181    
     89760   305.29996     -928.14559      2120.7341      4331.7259    
     89770   296.51867     -927.94486      1708.59        4333.9377    
     89780   314.60428     -928.49328      965.64453      4337.182     
     89790   316.71088     -928.60486      13.677496      4340.9937    
     89800   303.33158     -928.2913      -924.43653      4344.7845    
     89810   303.63514     -928.35975     -1656.8053      4347.9767    
     89820   305.88923     -928.48597     -2120.6784      4350.118     
     89830   300.16386     -928.39563     -2318.4721      4350.9248    
     89840   286.64325     -928.08823     -2206.7659      4350.2888    
     89850   289.17444     -928.22223     -1853.4188      4348.2906    
     89860   300.70294     -928.60506     -1243.7825      4345.1685    
     89870   285.94077     -928.25498     -339.24503      4341.3218    
     89880   269.71834     -927.85121      607.21507      4337.3116    
     89890   290.95104     -928.47652      1342.5252      4333.7154    
     89900   299.11308     -928.7348       2032.5757      4330.9985    
     89910   289.47587     -928.49786      2544.3155      4329.5722    
     89920   300.09113     -928.82466      2553.2398      4329.7232    
     89930   303.20909     -928.9482       2055.3689      4331.4418    
     89940   281.92228     -928.39453      1324.4731      4334.4223    
     89950   282.72016     -928.44824      447.86245      4338.2025    
     89960   297.74592     -928.89133     -489.8497       4342.2338    
     89970   297.61821     -928.9122      -1349.2726      4345.9355    
     89980   292.22702     -928.78906     -2025.5867      4348.7745    
     89990   276.96035     -928.39109     -2422.2876      4350.3371    
     90000   271.42842     -928.25795     -2491.0429      4350.3852    
     90010   285.76065     -928.67061     -2201.2586      4348.8902    
     90020   278.97819     -928.489       -1528.8294      4346.0525    
     90030   276.83129     -928.42515     -648.98592      4342.2975    
     90040   291.39227     -928.81012      356.39314      4338.1831    
     90050   289.98887     -928.73636      1395.7424      4334.3387    
     90060   292.6984      -928.7646       2154.907       4331.3919    
     90070   306.28576     -929.08434      2465.6807      4329.796     
     90080   296.7705      -928.75646      2441.6243      4329.74      
     90090   290.34823     -928.51108      2049.3512      4331.1927    
     90100   287.49479     -928.35481      1402.7052      4333.905     
     90110   275.14409     -927.92217      616.96665      4337.4732    
     90120   296.85519     -928.41932     -370.64058      4341.3953    
     90130   311.14332     -928.6936      -1181.364       4345.073     
     90140   279.84671     -927.70563     -1606.9518      4348.0108    
     90150   300.74925     -928.17126     -1997.4015      4349.9222    
     90160   321.30749     -928.6209      -2197.3109      4350.5783    
     90170   301.92413     -927.97732     -1984.441       4349.8761    
     90180   312.80504     -928.18976     -1556.8545      4347.9478    
     90190   325.4418      -928.45948     -946.63619      4345.0714    
     90200   302.16827     -927.74668     -108.50443      4341.6438    
     90210   300.20283     -927.6351       704.77746      4338.1801    
     90220   311.205       -927.88496      1406.1836      4335.1845    
     90230   299.79573     -927.51633      1957.7605      4333.0907    
     90240   326.12889     -928.20424      2099.4257      4332.2174    
     90250   317.62457     -927.93576      2025.5543      4332.6574    
     90260   289.38982     -927.13013      1719.6361      4334.3547    
     90270   330.54529     -928.25584      1020.4873      4337.0991    
     90280   339.05648     -928.48549      349.91524      4340.4757    
     90290   303.84169     -927.51681     -339.37948      4344.0587    
     90300   327.29366     -928.18745     -1353.0129      4347.3928    
     90310   325.91805     -928.18297     -2063.5438      4349.8799    
     90320   280.18402     -926.95342     -2211.5292      4351.091     
     90330   307.27736     -927.7474      -2249.6703      4350.9097    
     90340   333.02018     -928.51747     -1951.2177      4349.3373    
     90350   296.14728     -927.56055     -1168.4175      4346.5819    
     90360   307.99624     -927.96116     -360.89374      4343.1164    
     90370   325.00023     -928.51929      451.74426      4339.4549    
     90380   292.40938     -927.70636      1276.8413      4336.1109    
     90390   302.48996     -928.08059      1701.0656      4333.5705    
     90400   313.23673     -928.48479      1912.2239      4332.1048    
     90410   295.19551     -928.09472      2051.9801      4331.8465    
     90420   294.92564     -928.19701      1823.5695      4332.8566    
     90430   297.12968     -928.36674      1336.5559      4334.9933    
     90440   291.41001     -928.30859      725.7629       4337.9564    
     90450   306.8752      -928.83381     -145.21159      4341.3503    
     90460   301.27216     -928.76992     -979.49985      4344.6452    
     90470   291.85123     -928.58827     -1605.2477      4347.3265    
     90480   302.24762     -928.95012     -2088.2734      4348.9966    
     90490   278.51326     -928.3534      -2260.7762      4349.3657    
     90500   255.35919     -927.75162     -2045.4282      4348.3355    
     90510   274.62144     -928.3076      -1501.849       4346.0456    
     90520   290.72555     -928.76154     -640.48098      4342.8472    
     90530   283.00404     -928.54335      384.23807      4339.2809    
     90540   301.4235      -929.04498      1187.5957      4335.9687    
     90550   314.77999     -929.40632      1733.1671      4333.411     
     90560   298.12579     -928.94031      2072.9718      4331.9466    
     90570   286.06607     -928.60367      2091.0725      4331.7744    
     90580   285.54781     -928.58348      1721.0796      4332.8947    
     90590   280.89184     -928.4422       1100.7624      4335.0788    
     90600   272.29372     -928.1828       430.29598      4337.9469    
     90610   278.68624     -928.32955     -261.22425      4341.0775    
     90620   290.03671     -928.60458     -931.8122       4344.039     
     90630   295.71661     -928.71917     -1486.4476      4346.4144    
     90640   285.52025     -928.39335     -1735.3075      4347.868     
     90650   286.27275     -928.37155     -1748.4441      4348.2408    
     90660   297.87645     -928.64907     -1571.2782      4347.5262    
     90670   301.01672     -928.69305     -1153.8879      4345.8447    
     90680   295.1197      -928.48927     -596.13279      4343.4587    
     90690   301.57907     -928.63066     -51.236007      4340.7131    
     90700   301.50709     -928.5917       561.74075      4337.9584    
     90710   293.82746     -928.34394      1152.3243      4335.5727    
     90720   290.92813     -928.22858      1560.3175      4333.9154    
     90730   296.58717     -928.3501       1760.3124      4333.2357    
     90740   290.31974     -928.13904      1750.3746      4333.6565    
     90750   305.20931     -928.51671      1310.1841      4335.1522    
     90760   300.94534     -928.36297      723.02824      4337.4636    
     90770   291.76771     -928.07489      84.086985      4340.2252    
     90780   303.23798     -928.35871     -604.16865      4343.0343    
     90790   295.50216     -928.10817     -1141.9924      4345.47      
     90800   279.07922     -927.61521     -1457.463       4347.1978    
     90810   299.66171     -928.14487     -1600.8043      4348.0168    
     90820   321.71415     -928.71346     -1476.9553      4347.8448    
     90830   308.3641      -928.30763     -1072.4699      4346.7654    
     90840   315.55031     -928.48155     -727.95025      4345.0162    
     90850   330.91718     -928.89271     -400.90779      4342.8189    
     90860   299.24142     -928.0083       183.46267      4340.4002    
     90870   285.0611      -927.61261      697.9937       4338.105     
     90880   287.57463     -927.67228      1088.504       4336.2552    
     90890   302.3353      -928.06667      1290.1996      4335.0878    
     90900   304.04339     -928.09647      1393.1993      4334.7338    
     90910   306.42348     -928.14791      1382.999       4335.2531    
     90920   304.82182     -928.08971      1204.633       4336.6368    
     90930   322.70814     -928.57751      641.47997      4338.7567    
     90940   310.0771      -928.22446      7.4001801      4341.2793    
     90950   290.89565     -927.69408     -541.17807      4343.8134    
     90960   303.99821     -928.05941     -1040.2276      4346.0101    
     90970   313.4834      -928.32586     -1374.6948      4347.5631    
     90980   310.39465     -928.2527      -1554.7437      4348.2613    
     90990   307.66504     -928.20148     -1646.4965      4347.988     
     91000   308.20341     -928.25541     -1483.552       4346.6962    
     91010   285.17632     -927.66371     -800.59136      4344.5084    
     91020   279.1453      -927.5417       5.2875899      4341.834     
     91030   311.93872     -928.49931      561.00358      4339.1593    
     91040   320.17516     -928.78752      1075.9061      4336.8482    
     91050   309.22503     -928.55682      1489.9427      4335.2182    
     91060   317.50273     -928.87501      1573.0826      4334.5128    
     91070   301.94869     -928.54383      1404.9459      4334.788     
     91080   268.36455     -927.7034       983.61776      4335.9369    
     91090   277.87966     -928.04593      325.40131      4337.6922    
     91100   287.40155     -928.37971     -79.60895       4339.6715    
     91110   277.40887     -928.1614      -241.15517      4341.6188    
     91120   288.69173     -928.52397     -558.9535       4343.4087    
     91130   311.13701     -929.19591     -959.60682      4344.8464    
     91140   294.4909      -928.78395     -1124.8542      4345.6992    
     91150   290.89768     -928.73214     -1227.4856      4345.8502    
     91160   295.60579     -928.90947     -1161.4245      4345.2424    
     91170   273.08692     -928.3235      -818.62654      4343.9255    
     91180   272.08854     -928.32324     -496.24638      4342.0968    
     91190   283.3984      -928.65215     -45.442674      4339.9697    
     91200   290.47338     -928.85304      653.04113      4337.8368    
     91210   313.19271     -929.48579      1169.6824      4336.1105    
     91220   307.6141      -929.33788      1329.5959      4335.1059    
     91230   267.01399     -928.21763      1273.8702      4334.9314    
     91240   263.45187     -928.11431      963.99254      4335.5471    
     91250   281.41753     -928.59159      588.87669      4336.7697    
     91260   266.55498     -928.14067      349.42094      4338.3771    
     91270   273.96508     -928.29277     -18.065013      4340.2025    
     91280   308.32188     -929.17293     -476.10179      4342.0174    
     91290   295.37386     -928.72968     -632.74621      4343.558     
     91300   287.16679     -928.41821     -697.83872      4344.7122    
     91310   314.91957     -929.0966      -922.05045      4345.4223    
     91320   297.66882     -928.52192     -945.54142      4345.5707    
     91330   289.86645     -928.21575     -857.80698      4345.1341    
     91340   310.44544     -928.69225     -705.87911      4344.1648    
     91350   297.63882     -928.24126     -349.98717      4342.7683    
     91360   297.41259     -928.14552     -49.247115      4341.1523    
     91370   310.35472     -928.41512      175.20325      4339.5049    
     91380   287.71743     -927.70138      536.50058      4337.9802    
     91390   282.21484     -927.46807      920.14964      4336.7978    
     91400   309.40897     -928.13768      1185.2086      4336.1904    
     91410   303.87846     -927.90058      1324.4797      4336.3275    
     91420   307.31642     -927.92419      1116.2816      4337.2836    
     91430   334.68773     -928.62159      657.50905      4338.9365    
     91440   327.11395     -928.36677      219.20505      4341.0168    
     91450   305.80802     -927.7496      -286.55598      4343.2441    
     91460   306.29376     -927.74582     -880.9972       4345.2973    
     91470   305.93153     -927.72119     -1229.8673      4346.8216    
     91480   320.60363     -928.121       -1358.436       4347.5909    
     91490   320.50481     -928.1219      -1308.9672      4347.5195    
     91500   299.64566     -927.55427     -1077.8176      4346.638     
     91510   319.87573     -928.13331     -845.77164      4345.0773    
     91520   322.60156     -928.23601     -390.34555      4342.9968    
     91530   288.5221      -927.31958      266.94075      4340.6826    
     91540   308.72501     -927.9096       643.90041      4338.5165    
     91550   315.9612      -928.14295      969.80572      4336.7523    
     91560   289.87258     -927.45175      1370.0728      4335.6029    
     91570   313.62507     -928.14495      1491.1348      4335.3003    
     91580   334.27787     -928.76271      1306.4834      4335.9239    
     91590   306.19127     -928.0389       971.74023      4337.372     
     91600   300.79834     -927.94596      475.50732      4339.4381    
     91610   316.30242     -928.43637     -118.30662      4341.8156    
     91620   295.59832     -927.92044     -625.1469       4344.1454    
     91630   292.21282     -927.87958     -1163.7294      4346.0976    
     91640   298.24518     -928.09451     -1536.5704      4347.3407    
     91650   297.95083     -928.12873     -1562.2445      4347.6443    
     91660   317.54567     -928.71626     -1352.4421      4346.9793    
     91670   316.45217     -928.73606     -980.7993       4345.4682    
     91680   280.60074     -927.78581     -455.92189      4343.3427    
     91690   289.7989      -928.07422     -34.604863      4340.9134    
     91700   306.67702     -928.56862      443.35663      4338.4541    
     91710   283.97147     -927.95605      1108.7151      4336.2746    
     91720   299.59124     -928.40055      1477.281       4334.7657    
     91730   326.10234     -929.14902      1512.0565      4334.1625    
     91740   298.40708     -928.39676      1494.5397      4334.5125    
     91750   290.17545     -928.18316      1168.1152      4335.7958    
     91760   297.59067     -928.39858      602.69922      4337.8204    
     91770   276.03634     -927.80191      92.086804      4340.2563    
     91780   274.13139     -927.74033     -483.78987      4342.7774    
     91790   307.43493     -928.64794     -1094.2922      4345.0218    
     91800   311.41927     -928.74275     -1370.7624      4346.6222    
     91810   297.29295     -928.34095     -1364.1969      4347.3935    
     91820   312.42017     -928.75625     -1386.5618      4347.3099    
     91830   308.23143     -928.64009     -1220.4488      4346.3633    
     91840   289.56923     -928.12488     -854.45383      4344.6491    
     91850   295.9523      -928.30286     -456.50226      4342.3792    
     91860   296.16032     -928.30555      113.0157       4339.8089    
     91870   279.2473      -927.82728      749.79384      4337.2888    
     91880   293.52        -928.20765      1134.1468      4335.2011    
     91890   310.95036     -928.67157      1456.3703      4333.8047    
     91900   292.94268     -928.1528       1833.9493      4333.32      
     91910   295.18503     -928.19769      1777.3761      4333.9673    
     91920   303.58329     -928.41079      1270.221       4335.7287    
     91930   296.67547     -928.19768      630.48221      4338.3208    
     91940   302.65596     -928.3404      -43.609339      4341.3586    
     91950   320.40983     -928.80976     -754.43287      4344.4221    
     91960   308.87279     -928.47111     -1337.047       4347.0717    
     91970   298.66483     -928.17448     -1793.5818      4348.9288    
     91980   308.36338     -928.43342     -2085.7223      4349.6893    
     91990   282.64926     -927.70921     -1930.4139      4349.1662    
     92000   268.11002     -927.28852     -1511.6814      4347.4235    
     92010   301.59136     -928.18668     -964.47866      4344.6993    
     92020   318.37319     -928.60944     -97.74115       4341.3386    
     92030   310.13286     -928.33768      897.0932       4337.8697    
     92040   318.18355     -928.52115      1572.8636      4334.893     
     92050   309.78637     -928.25091      2017.4426      4332.8511    
     92060   293.22677     -927.75648      2237.5574      4332.0424    
     92070   309.88351     -928.18273      1985.3802      4332.6121    
     92080   302.38307     -927.93369      1515.934       4334.4465    
     92090   298.59373     -927.78538      951.15392      4337.2823    
     92100   327.76639     -928.54614      231.41262      4340.7809    
     92110   328.13928     -928.50838     -568.70348      4344.5063    
     92120   303.19921     -927.77606     -1394.0392      4347.9586    
     92130   318.34809     -928.16128     -2226.3846      4350.6026    
     92140   302.29613     -927.68184     -2581.0424      4351.918     
     92150   273.03746     -926.83688     -2455.9425      4351.6456    
     92160   305.02858     -927.68389     -2122.0772      4349.8116    
     92170   327.13857     -928.24673     -1327.8811      4346.6136    
     92180   312.60259     -927.79613     -126.0236       4342.5271    
     92190   325.21543     -928.10486      976.16494      4338.2682    
     92200   335.2144      -928.34816      1857.0449      4334.5277    
     92210   315.84329     -927.79111      2530.8605      4331.8765    
     92220   317.15629     -927.82267      2719.6303      4330.7467    
     92230   325.19069     -928.0543       2432.0484      4331.2944    
     92240   325.34995     -928.08439      1805.1873      4333.3869    
     92250   321.32284     -928.0178       968.20552      4336.6721    
     92260   290.60303     -927.21779      152.94061      4340.6657    
     92270   288.97616     -927.22405     -765.76935      4344.8575    
     92280   303.46728     -927.67647     -1691.8105      4348.6743    
     92290   313.47714     -928.01223     -2419.4416      4351.523     
     92300   313.30174     -928.07852     -2652.4284      4352.9303    
     92310   320.05908     -928.35574     -2516.5165      4352.6999    
     92320   312.33179     -928.24849     -2134.2944      4350.8716    
     92330   304.18292     -928.13787     -1489.4648      4347.654     
     92340   311.83248     -928.47286     -608.38673      4343.4257    
     92350   303.09313     -928.35503      471.60119      4338.7249    
     92360   284.1918      -927.94343      1547.1879      4334.2165    
     92370   277.61845     -927.85452      2372.1674      4330.5735    
     92380   298.07739     -928.50511      2796.093       4328.3279    
     92390   313.39276     -929.01431      2960.6659      4327.7903    
     92400   303.09424     -928.81454      2827.503       4329.1053    
     92410   290.64584     -928.54952      2085.7818      4332.2177    
     92420   290.22863     -928.60707      846.83042      4336.7134    
     92430   281.04436     -928.40574     -440.92685      4341.869     
     92440   272.63167     -928.20605     -1601.9079      4346.89      
     92450   284.28013     -928.54812     -2574.9863      4351.0309    
     92460   285.23446     -928.58278     -3078.3654      4353.6613    
     92470   291.37175     -928.75712     -3187.3597      4354.4118    
     92480   300.96179     -929.02751     -2960.7199      4353.162     
     92490   285.36998     -928.59856     -2223.978       4350.0221    
     92500   276.95035     -928.36168     -1121.4956      4345.4145    
     92510   294.09665     -928.82328      40.357751      4339.9944    
     92520   289.51507     -928.67061      1286.7139      4334.49      
     92530   281.76621     -928.42193      2413.0454      4329.6785    
     92540   293.67566     -928.71152      3177.6931      4326.272     
     92550   295.64622     -928.72174      3610.7029      4324.7859    
     92560   284.37741     -928.36527      3550.245       4325.5268    
     92570   296.12711     -928.64664      2737.8351      4328.4917    
     92580   295.59442     -928.58017      1579.7744      4333.2474    
     92590   285.46416     -928.24061      368.77962      4339.1224    
     92600   303.20075     -928.66296     -1056.4722      4345.3629    
     92610   311.45958     -928.81055     -2488.4712      4351.0802    
     92620   290.65919     -928.15133     -3541.7138      4355.3648    
     92630   281.11443     -927.80552     -4050.5993      4357.5118    
     92640   288.12768     -927.91275     -3884.9813      4357.1527    
     92650   294.56453     -927.99514     -3100.8788      4354.3383    
     92660   302.38817     -928.10779     -1964.4905      4349.5102    
     92670   317.93176     -928.42697     -548.00961      4343.3564    
     92680   308.24453     -928.04257      1203.6993      4336.7648    
     92690   314.11368     -928.09419      2715.0045      4330.8055    
     92700   329.36391     -928.41106      3679.6142      4326.428     
     92710   325.604       -928.2205       4133.9092      4324.2695    
     92720   319.09922     -927.97975      4006.0338      4324.6517    
     92730   316.01502     -927.85581      3258.7791      4327.54      
     92740   300.75604     -927.40601      2064.5018      4332.5272    
     92750   309.14687     -927.61627      454.51083      4338.9045    
     92760   323.00241     -927.97937     -1248.0382      4345.6979    
     92770   290.83374     -927.06691     -2559.0204      4351.8599    
     92780   295.35255     -927.17347     -3530.3554      4356.5295    
     92790   331.75452     -928.17093     -4028.406       4359.0591    
     92800   321.17594     -927.88166     -3854.9222      4359.1009    
     92810   316.66588     -927.77727     -3311.6258      4356.7028    
     92820   335.8521      -928.34346     -2428.444       4352.1739    
     92830   323.10013     -928.02995     -1034.1021      4346.0621    
     92840   310.41418     -927.71529      537.68381      4339.215     
     92850   309.86932     -927.72843      2027.6799      4332.6077    
     92860   309.853       -927.74973      3337.5318      4327.18      
     92870   323.26684     -928.14659      4222.731       4323.7571    
     92880   327.42185     -928.30094      4434.443       4322.9079    
     92890   310.1726      -927.87394      3926.4636      4324.8026    
     92900   308.90007     -927.89683      2747.5558      4329.1704    
     92910   299.82137     -927.70123      1221.0374      4335.3322    
     92920   282.98298     -927.27615     -425.87149      4342.3703    
     92930   313.03295     -928.14257     -2140.6548      4349.2541    
     92940   311.14989     -928.12287     -3370.6402      4354.9191    
     92950   279.9474      -927.28669     -3932.8246      4358.5661    
     92960   319.73027     -928.42653     -4176.4657      4359.7747    
     92970   339.41612     -929.02799     -3871.7838      4358.3691    
     92980   311.01551     -928.31491     -2999.3224      4354.5112    
     92990   312.08792     -928.42851     -1806.3715      4348.7152    
     93000   303.94282     -928.28893     -241.17645      4341.7271    
     93010   272.23098     -927.47736      1473.5975      4334.5184    
     93020   295.24785     -928.1717       2813.8542      4328.1375    
     93030   304.55026     -928.48289      3852.9642      4323.443     
     93040   289.01666     -928.10539      4477.5339      4321.0954    
     93050   302.52633     -928.53923      4394.3115      4321.4941    
     93060   302.89059     -928.61715      3683.7405      4324.6296    
     93070   280.5125      -928.06039      2465.5492      4330.1049    
     93080   300.70458     -928.67849      725.851        4337.1865    
     93090   300.99112     -928.73614     -977.35975      4344.8362    
     93100   282.34671     -928.25696     -2486.6884      4351.9892    
     93110   300.07377     -928.78059     -3978.1821      4357.6592    
     93120   297.76741     -928.75048     -4936.9696      4360.8991    
     93130   267.78838     -927.95323     -4954.0296      4361.0845    
     93140   279.04575     -928.2987      -4248.9189      4358.1522    
     93150   297.87963     -928.85046     -2886.1848      4352.5218    
     93160   292.01062     -928.70902     -1006.9811      4345.0358    
     93170   294.57939     -928.79162      903.1779       4336.8476    
     93180   285.70869     -928.54377      2643.8477      4329.1506    
     93190   282.36266     -928.43782      4049.2811      4323.0338    
     93200   301.59487     -928.95504      4805.2459      4319.3681    
     93210   293.61476     -928.71994      4920.6221      4318.647     
     93220   280.55335     -928.34821      4386.3425      4320.9703    
     93230   283.01994     -928.40147      3263.9351      4326.0449    
     93240   293.84767     -928.67088      1647.8546      4333.21      
     93250   295.00909     -928.65008     -237.47666      4341.492     
     93260   292.26919     -928.49784     -2183.5755      4349.7248    
     93270   292.59558     -928.40744     -3893.4458      4356.6827    
     93280   291.76138     -928.26709     -4895.5266      4361.2814    
     93290   287.87359     -928.03181     -5074.2993      4362.8541    
     93300   295.72333     -928.11531     -4667.3535      4361.2395    
     93310   316.3802      -928.54598     -3724.1712      4356.6677    
     93320   305.28541     -928.09698     -2034.1804      4349.7382    
     93330   307.25717     -928.01851     -20.766161      4341.4892    
     93340   333.13752     -928.60343      1866.2848      4333.1657    
     93350   312.61052     -927.91378      3557.7999      4325.9546    
     93360   289.09354     -927.16504      4708.9251      4320.8995    
     93370   324.59924     -928.07024      5103.5948      4318.7159    
     93380   317.75434     -927.81905      5039.6242      4319.6899    
     93390   293.91218     -927.12201      4255.624       4323.7966    
     93400   326.37982     -927.99929      2516.4244      4330.5657    
     93410   324.37017     -927.92236      497.5031       4338.9815    
     93420   314.79112     -927.64113     -1492.5976      4347.8063    
     93430   329.34349     -928.0339      -3307.2214      4355.7877    
     93440   315.6469      -927.65261     -4585.7673      4361.7758    
     93450   297.22992     -927.1515      -5197.3239      4364.9348    
     93460   319.61648     -927.79741     -5214.8291      4364.8374    
     93470   323.18073     -927.93932     -4434.3892      4361.4619    
     93480   325.28041     -928.05753     -3058.7626      4355.2767    
     93490   341.05222     -928.5733      -1324.2547      4347.1356    
     93500   309.28982     -927.77548      736.68042      4338.1366    
     93510   290.62707     -927.32821      2708.5801      4329.5554    
     93520   315.35231     -928.08164      4232.0581      4322.6088    
     93530   301.66273     -927.77474      5282.5289      4318.2529    
     93540   279.215       -927.22343      5581.7146      4317.1358    
     93550   307.77037     -928.09417      4941.8956      4319.4515    
     93560   321.15832     -928.55534      3718.1769      4324.8532    
     93570   311.28983     -928.37565      2040.3386      4332.6157    
     93580   314.73178     -928.56043     -62.144134      4341.7129    
     93590   311.68344     -928.5554      -2188.1601      4350.855     
     93600   295.51338     -928.17184     -3960.235       4358.7105    
     93610   292.12927     -928.13172     -5276.387       4364.1352    
     93620   296.30675     -928.29838     -5968.1422      4366.2716    
     93630   298.80849     -928.424       -5787.0054      4364.6644    
     93640   287.64088     -928.17085     -4541.2823      4359.4243    
     93650   288.46077     -928.24057     -2579.8959      4351.3152    
     93660   296.25607     -928.48608     -292.63921      4341.5626    
     93670   285.94853     -928.20782      2033.0337      4331.5985    
     93680   279.14355     -928.00579      4133.1633      4322.8713    
     93690   303.82209     -928.66929      5605.0668      4316.6681    
     93700   308.41752     -928.78349      6269.5276      4313.8976    
     93710   295.62965     -928.43206      5990.1894      4314.9758    
     93720   303.19546     -928.6589       4789.9487      4319.7526    
     93730   298.7652      -928.5548       2979.8437      4327.5311    
     93740   294.47518     -928.44673      713.07199      4337.2154    
     93750   291.43973     -928.35681     -1640.1211      4347.4196    
     93760   279.74473     -928.00847     -3696.1283      4356.6765    
     93770   286.3529      -928.15633     -5282.8689      4363.6722    
     93780   315.39317     -928.92922     -6172.5187      4367.3822    
     93790   314.54827     -928.89131     -6082.8659      4367.2312    
     93800   291.44485     -928.25553     -5193.4411      4363.2494    
     93810   285.74372     -928.10876     -3737.5405      4355.9843    
     93820   265.5604      -927.54622     -1573.2709      4346.3776    
     93830   263.10825     -927.448        987.68054      4335.7883    
     93840   305.86302     -928.57375      3419.8097      4325.8022    
     93850   324.07975     -929.00423      5463.4243      4317.9273    
     93860   317.22893     -928.75505      6692.2133      4313.4062    
     93870   322.81449     -928.88027      6796.2975      4312.9823    
     93880   305.27565     -928.38971      5899.3266      4316.7423    
     93890   296.83119     -928.16537      3978.7392      4324.1501    
     93900   295.62976     -928.13455      1397.7448      4334.0573    
     93910   281.61056     -927.72748     -1201.7074      4344.9009    
     93920   278.40736     -927.59595     -3417.4166      4355.0665    
     93930   311.32767     -928.45017     -5155.1931      4363.1374    
     93940   308.59485     -928.31365     -6094.7933      4368.0067    
     93950   296.57235     -927.93401     -6273.501       4369.0499    
     93960   319.30284     -928.53151     -5726.3801      4366.1383    
     93970   314.51113     -928.37263     -4246.9367      4359.6352    
     93980   293.73057     -927.76951     -2088.576       4350.4777    
     93990   304.70572     -928.02905      217.55917      4340.0151    
     94000   314.52945     -928.22914      2498.2896      4329.701     
     94010   309.03653     -927.9851       4588.7983      4320.9549    
     94020   307.99285     -927.85557      6060.5133      4315.0461    
     94030   305.71681     -927.68954      6661.4653      4312.8648    
     94040   297.19464     -927.3525       6348.3987      4314.7798    
     94050   309.75818     -927.59736      5073.7493      4320.6052    
     94060   334.90836     -928.17573      3032.076       4329.5809    
     94070   352.93661     -928.54683      523.34186      4340.4684    
     94080   343.13156     -928.15064     -2072.0172      4351.7225    
     94090   322.20384     -927.45995     -4419.8256      4361.7161    
     94100   319.61433     -927.29251     -6255.2913      4368.9523    
     94110   307.99779     -926.89381     -7115.1978      4372.27      
     94120   306.81691     -926.81089     -6861.7359      4371.1132    
     94130   311.52848     -926.90942     -5472.007       4365.6518    
     94140   331.36045     -927.43717     -3301.9424      4356.7686    
     94150   340.60162     -927.67397     -713.77529      4345.8468    
     94160   346.26269     -927.81841      1899.8373      4334.5162    
     94170   345.87353     -927.80921      4227.831       4324.4058    
     94180   328.10388     -927.34146      5911.8801      4316.9358    
     94190   306.23436     -926.78393      6727.5043      4313.1207    
     94200   309.64393     -926.95366      6623.6117      4313.4452    
     94210   323.82616     -927.45137      5725.7922      4317.8493    
     94220   341.20802     -928.07024      3995.4799      4325.7814    
     94230   348.58997     -928.44064      1583.8026      4336.187     
     94240   343.50277     -928.48093     -1194.6749      4347.5813    
     94250   323.17972     -928.0933      -3804.8893      4358.2422    
     94260   291.32237     -927.35687     -5803.6843      4366.5273    
     94270   273.33221     -926.96979     -6963.6256      4371.1628    
     94280   291.39439     -927.56839     -7154.5796      4371.4096    
     94290   311.19865     -928.21732     -6165.9788      4367.1694    
     94300   305.65639     -928.15956     -4149.0229      4359.091     
     94310   300.17833     -928.08488     -1692.9971      4348.4547    
     94320   309.57952     -928.40056      874.60882      4336.8216    
     94330   297.33513     -928.09101      3550.9903      4325.8198    
     94340   301.23245     -928.21239      5749.5557      4317.0765    
     94350   324.66999     -928.88408      6955.3344      4311.9026    
     94360   300.8532      -928.26345      7144.26        4311.0159    
     94370   293.00527     -928.10116      6236.633       4314.5064    
     94380   319.83472     -928.91207      4405.0946      4321.8159    
     94390   307.12428     -928.62646      2016.7894      4331.8325    
     94400   278.56862     -927.88164     -741.45597      4343.0762    
     94410   287.62241     -928.15459     -3352.2681      4353.8403    
     94420   281.06821     -927.97533     -5191.1542      4362.5032    
     94430   277.08609     -927.85998     -6261.647       4367.8894    
     94440   310.27767     -928.78518     -6666.8786      4369.3116    
     94450   294.98065     -928.37928     -5973.9633      4366.5572    
     94460   283.09469     -928.07543     -4419.9352      4360.0832    
     94470   316.81717     -929.03488     -2415.9552      4350.888     
     94480   299.65399     -928.57186      99.528272      4340.2792    
     94490   272.26608     -927.80639      2610.1976      4329.8272    
     94500   301.74737     -928.60257      4493.6654      4321.06      
     94510   307.32574     -928.73181      5881.768       4315.1359    
     94520   287.03764     -928.15302      6579.3837      4312.8713    
     94530   310.96445     -928.81774      6121.7961      4314.6373    
     94540   302.08464     -928.58291      4865.2636      4320.1544    
     94550   282.37285     -928.04898      2899.1459      4328.6377    
     94560   299.83986     -928.53208      338.25587      4338.8629    
     94570   291.36545     -928.27224     -2055.1119      4349.268     
     94580   275.66824     -927.79321     -3996.2125      4358.3555    
     94590   303.40555     -928.50657     -5584.1527      4364.8851    
     94600   303.61509     -928.45223     -6346.0877      4367.8831    
     94610   292.47969     -928.09409     -6046.1678      4366.897     
     94620   312.03547     -928.59255     -4922.1431      4362.1359    
     94630   305.86324     -928.37273     -3063.8761      4354.3518    
     94640   274.54188     -927.44295     -695.73406      4344.7495    
     94650   307.41321     -928.26899      1504.2529      4334.8041    
     94660   335.3217      -928.92721      3456.0632      4325.8954    
     94670   305.93989     -927.99765      5173.1134      4319.2239    
     94680   291.10808     -927.48591      6036.7933      4315.7859    
     94690   313.07556     -928.00157      5823.1466      4316.0646    
     94700   316.38006     -928.00571      4971.2597      4319.9228    
     94710   306.96058     -927.66906      3528.3599      4326.8144    
     94720   325.33033     -928.10474      1384.6675      4335.8215    
     94730   322.17842     -927.93761     -915.20461      4345.6301    
     94740   303.3111      -927.33486     -2981.8376      4354.8118    
     94750   330.67721     -928.01703     -4725.4529      4362.0626    
     94760   337.00022     -928.12902     -5700.2429      4366.3111    
     94770   300.36171     -927.07742     -5726.899       4366.9692    
     94780   308.72946     -927.29566     -5102.3229      4364.0327    
     94790   327.6403      -927.81726     -3758.2712      4357.947     
     94800   305.41602     -927.20313     -1776.5648      4349.6045    
     94810   319.24207     -927.58826      285.83966      4340.2561    
     94820   343.44118     -928.26433      2370.3902      4331.209     
     94830   309.12483     -927.32439      4447.3899      4323.7607    
     94840   330.4366      -927.94916      5555.2276      4319.113     
     94850   336.18928     -928.17909      5774.9139      4317.9212    
     94860   302.39706     -927.3449       5224.1636      4320.2853    
     94870   316.10123     -927.85463      3747.6624      4325.8224    
     94880   331.51762     -928.44322      1707.3352      4333.6145    
     94890   295.32612     -927.60701     -376.99632      4342.4067    
     94900   296.02898     -927.78077     -2427.0047      4350.8868    
     94910   312.16875     -928.38456     -4032.8535      4357.7874    
     94920   283.31756     -927.72503     -4825.5672      4362.1252    
     94930   296.14628     -928.20389     -5116.4514      4363.3985    
     94940   318.27071     -928.94416     -4808.5701      4361.4606    
     94950   267.14846     -927.62956     -3551.4359      4356.5732    
     94960   278.36859     -928.01245     -1955.0597      4349.5345    
     94970   325.71223     -929.38219     -191.92156      4341.3772    
     94980   308.90638     -928.95988      1816.3155      4333.2334    
     94990   299.47564     -928.73071      3481.0034      4326.3201    
     95000   305.64399     -928.93183      4423.748       4321.6271    
     95010   264.50663     -927.81338      4801.5976      4319.7145    
     95020   270.55494     -927.99703      4432.8722      4320.7636    
     95030   303.9442      -928.93497      3527.7276      4324.5248    
     95040   282.38918     -928.34241      2338.9483      4330.4282    
     95050   287.25475     -928.47599      662.02559      4337.7019    
     95060   296.91704     -928.72797     -1129.172       4345.3107    
     95070   285.04634     -928.3707      -2608.3605      4352.1524    
     95080   296.07271     -928.64333     -3793.8172      4357.297     
     95090   297.31573     -928.64327     -4535.2754      4360.0198    
     95100   279.35092     -928.11385     -4583.3305      4359.8924    
     95110   298.54381     -928.61806     -3913.0786      4356.9209    
     95120   307.52868     -928.83614     -2510.3332      4351.5726    
     95130   284.39742     -928.15852     -717.88742      4344.7515    
     95140   302.31379     -928.61123      848.24835      4337.5705    
     95150   309.80189     -928.76321      2221.8738      4331.0185    
     95160   290.67426     -928.1754       3362.9248      4325.9369    
     95170   299.71016     -928.371        3933.3742      4322.9872    
     95180   282.28808     -927.83055      4019.7367      4322.4959    
     95190   273.38921     -927.52565      3608.077       4324.4829    
     95200   310.07274     -928.47424      2627.4706      4328.658     
     95210   315.71741     -928.55042      1502.9249      4334.4179    
     95220   290.28627     -927.76615      283.92072      4341.0508    
     95230   312.48113     -928.29837     -1243.1776      4347.7723    
     95240   329.76849     -928.6848      -2718.4783      4353.6437    
     95250   310.94906     -928.079       -3726.6534      4357.7668    
     95260   317.60195     -928.19532     -4214.7681      4359.5239    
     95270   318.78406     -928.17205     -4025.729       4358.644     
     95280   293.39101     -927.42314     -3198.9433      4355.2825    
     95290   303.82589     -927.67153     -2100.7289      4349.9749    
     95300   306.29547     -927.69031     -631.68991      4343.4532    
     95310   304.20546     -927.5758       1040.9039      4336.6494    
     95320   316.03228     -927.84039      2538.7012      4330.5904    
     95330   320.70534     -927.90565      3678.3808      4326.1847    
     95340   319.57918     -927.81806      4272.7519      4324.1024    
     95350   339.43771     -928.32781      4079.478       4324.6611    
     95360   326.38144     -927.94177      3326.6866      4327.7224    
     95370   301.34678     -927.23739      2135.6958      4332.7973    
     95380   304.89148     -927.32437      585.18785      4339.1294    
     95390   328.03279     -927.94942     -1085.5328      4345.7507    
     95400   322.77982     -927.78962     -2381.7576      4351.6402    
     95410   310.34759     -927.44209     -3190.0441      4355.9941    
     95420   328.91595     -927.9713      -3646.6436      4358.3094    
     95430   334.86467     -928.17773     -3637.4908      4358.329     
     95440   313.13684     -927.64614     -3152.2164      4356.0899    
     95450   309.81217     -927.64644     -2355.2721      4351.9212    
     95460   314.12707     -927.87743     -1187.0699      4346.3589    
     95470   302.73454     -927.68012      281.91475      4340.1573    
     95480   311.82492     -928.05669      1567.6391      4334.2168    
     95490   314.00067     -928.2513       2564.3147      4329.3282    
     95500   284.81583     -927.57016      3394.12        4326.1013    
     95510   288.86863     -927.79745      3724.5967      4325.0039    
     95520   321.63576     -928.82929      3430.7024      4326.2041    
     95530   302.86822     -928.43304      2757.3495      4329.5082    
     95540   298.37186     -928.42202      1553.5477      4334.4646    
     95550   314.32315     -928.97261      34.935006      4340.32      
     95560   291.04429     -928.42162     -1316.0138      4346.1456    
     95570   274.68044     -928.03995     -2505.2186      4351.0914    
     95580   289.20253     -928.50175     -3432.6864      4354.4215    
     95590   276.26251     -928.19107     -3630.235       4355.5972    
     95600   275.44204     -928.20579     -3207.3986      4354.5127    
     95610   312.26987     -929.26276     -2483.2367      4351.4456    
     95620   309.91182     -929.23396     -1389.3603      4346.8883    
     95630   291.66497     -928.76314     -162.46718      4341.5363    
     95640   291.41224     -928.7851       955.00998      4336.1562    
     95650   278.25097     -928.43861      1956.0767      4331.4458    
     95660   266.30875     -928.11253      2671.0518      4328.0071    
     95670   281.72214     -928.53528      2941.4173      4326.2533    
     95680   272.47522     -928.26244      3024.4865      4326.3458    
     95690   272.90905     -928.24924      2741.9139      4328.302     
     95700   301.14795     -928.99571      1962.5999      4331.9188    
     95710   305.10059     -929.05951      990.58732      4336.7138    
     95720   289.43213     -928.57533     -64.503852      4342.0772    
     95730   305.79287     -928.97355     -1349.7373      4347.333     
     95740   308.40268     -928.98232     -2498.8919      4351.697     
     95750   286.63136     -928.31553     -3199.6259      4354.4718    
     95760   292.43679     -928.41346     -3489.7066      4355.2272    
     95770   293.94551     -928.38604     -3214.7098      4353.8136    
     95780   278.9065      -927.89464     -2391.2611      4350.4317    
     95790   290.0107      -928.11823     -1327.0766      4345.6086    
     95800   308.11727     -928.51823     -25.199716      4340.0349    
     95810   292.25995     -927.96712      1495.6072      4334.5373    
     95820   291.37129     -927.83003      2706.5233      4330.0312    
     95830   310.18533     -928.23462      3346.1553      4327.2406    
     95840   321.88429     -928.44767      3433.6325      4326.5405    
     95850   317.93596     -928.24532      2987.9762      4327.9607    
     95860   313.49866     -928.05008      2136.2417      4331.2078    
     95870   289.92086     -927.33522      1237.788       4335.7576    
     95880   291.71399     -927.32762      180.53354      4341.0314    
     95890   339.27875     -928.58825     -1065.7854      4346.3585    
     95900   340.77519     -928.58382     -2012.2611      4350.9881    
     95910   321.74344     -928.03641     -2749.4622      4354.322     
     95920   323.60313     -928.08825     -3332.7946      4355.9033    
     95930   313.08105     -927.81181     -3438.4818      4355.4       
     95940   288.12212     -927.14094     -2934.6714      4352.7769    
     95950   287.5407      -927.14329     -1973.9691      4348.3671    
     95960   293.77616     -927.32496     -497.46244      4342.8055    
     95970   309.61453     -927.76469      1147.316       4337.0159    
     95980   336.66931     -928.51956      2398.6365      4331.9947    
     95990   330.43782     -928.36616      3248.3052      4328.5127    
     96000   318.08418     -928.05895      3559.159       4327.0699    
     96010   325.67152     -928.31907      3151.0735      4327.8219    
     96020   315.03324     -928.08307      2431.9624      4330.5184    
     96030   293.83979     -927.55113      1529.2541      4334.7015    
     96040   299.69757     -927.7604       321.46445      4339.7892    
     96050   307.14739     -928.00504     -942.79269      4345.0344    
     96060   304.49982     -927.96293     -1975.9174      4349.6593    
     96070   317.002       -928.34126     -2784.442       4353.0163    
     96080   313.80014     -928.28907     -3210.6435      4354.6144    
     96090   291.41027     -927.70522     -3057.3767      4354.2127    
     96100   290.10139     -927.70146     -2481.1314      4351.9184    
     96110   308.72804     -928.24573     -1604.2874      4348.1089    
     96120   322.9493      -928.66948     -439.3922       4343.3553    
     96130   311.40077     -928.38046      721.42648      4338.3836    
     96140   304.33373     -928.21634      1600.8408      4333.9057    
     96150   295.9996      -928.01338      2324.0985      4330.4724    
     96160   294.66103     -928.00056      2800.8647      4328.5152    
     96170   305.47138     -928.32478      2812.1046      4328.301     
     96180   299.59826     -928.18883      2497.636       4329.8286    
     96190   276.50353     -927.5699       1946.9151      4332.8952    
     96200   299.32951     -928.21828      905.68173      4337.1283    
     96210   326.41736     -928.98236     -265.28803      4341.8938    
     96220   312.82548     -928.62432     -1273.3667      4346.4705    
     96230   296.23643     -928.18581     -2120.0517      4350.2254    
     96240   306.4772      -928.4945      -2742.45        4352.6319    
     96250   288.52386     -928.02046     -2859.6153      4353.3261    
     96260   284.30194     -927.92515     -2668.7652      4352.234     
     96270   302.06281     -928.43745     -2173.5571      4349.4931    
     96280   298.38151     -928.35303     -1235.8776      4345.4421    
     96290   293.52704     -928.23246     -113.33688      4340.6694    
     96300   307.31435     -928.62673      970.60987      4335.8734    
     96310   292.90825     -928.23571      2045.1662      4331.7358    
     96320   285.7715      -928.04345      2805.4384      4328.9002    
     96330   300.98701     -928.47061      3064.7479      4327.8153    
     96340   293.24716     -928.2608       2922.0563      4328.6343    
     96350   302.78408     -928.53265      2225.5052      4331.2441    
     96360   320.5455      -929.03734      1148.7017      4335.2088    
     96370   288.29614     -928.15689      164.11905      4339.8782    
     96380   282.3477      -928.00281     -909.82902      4344.6187    
     96390   313.68135     -928.87989     -1995.082       4348.7591    
     96400   291.27894     -928.26675     -2580.7458      4351.6506    
     96410   274.94584     -927.82304     -2748.0364      4352.9242    
     96420   302.6369      -928.5994      -2706.6782      4352.4721    
     96430   305.93195     -928.69985     -2301.1127      4350.3442    
     96440   290.6602      -928.2881      -1527.7047      4346.8115    
     96450   293.93763     -928.38987     -578.83263      4342.3618    
     96460   281.66727     -928.05148      594.40258      4337.6045    
     96470   281.34338     -928.0331       1745.3218      4333.2627    
     96480   308.54588     -928.76983      2533.1837      4330.0308    
     96490   308.74909     -928.7566       2939.1798      4328.3901    
     96500   300.48727     -928.5153       2889.1926      4328.5748    
     96510   302.15289     -928.55343      2416.3107      4330.5434    
     96520   301.57951     -928.52998      1632.2376      4333.9985    
     96530   304.06377     -928.59111      532.22411      4338.4432    
     96540   293.64142     -928.29056     -733.25564      4343.1934    
     96550   279.95082     -927.89204     -1845.6428      4347.4706    
     96560   281.94011     -927.91886     -2536.802       4350.5903    
     96570   283.04696     -927.91033     -2731.8299      4352.1263    
     96580   303.37076     -928.42791     -2648.2577      4351.9505    
     96590   322.66339     -928.91547     -2234.3234      4350.1297    
     96600   299.37021     -928.22649     -1296.7908      4346.9506    
     96610   293.93961     -928.03545     -220.81212      4342.991     
     96620   312.6374      -928.50796      663.00915      4338.915     
     96630   303.69438     -928.2115       1382.7339      4335.2804    
     96640   293.0213      -927.86829      1926.5987      4332.5316    
     96650   316.02866     -928.45917      2256.3946      4330.9978    
     96660   322.39511     -928.59129      2367.9814      4330.8779    
     96670   312.96768     -928.29752      2045.3403      4332.2204    
     96680   305.35925     -928.06363      1323.8206      4334.8184    
     96690   277.93174     -927.27772      553.66817      4338.2378    
     96700   294.15781     -927.6959      -286.86206      4341.9896    
     96710   318.31273     -928.32409     -1073.7765      4345.5528    
     96720   298.77106     -927.73968     -1608.9309      4348.445     
     96730   304.55154     -927.86129     -2005.6739      4350.3234    
     96740   326.89508     -928.44407     -2204.5608      4350.945     
     96750   313.39263     -928.04063     -2041.5251      4350.2006    
     96760   316.91874     -928.12185     -1629.3862      4348.1921    
     96770   318.13732     -928.14705     -923.22046      4345.1912    
     96780   293.529       -927.45983     -26.887688      4341.643     
     96790   304.93141     -927.77158      806.61319      4338.0998    
     96800   331.21816     -928.4996       1526.4159      4335.0806    
     96810   321.57742     -928.24361      2095.2725      4333.0327    
     96820   319.72499     -928.22342      2196.4598      4332.2849    
     96830   304.3315      -927.84183      1863.7813      4332.8981    
     96840   287.07846     -927.41443      1242.2625      4334.6646    
     96850   291.98567     -927.60221      606.48842      4337.2081    
     96860   302.11113     -927.93762      44.340836      4340.1332    
     96870   303.48041     -928.03536     -520.15637      4343.0818    
     96880   314.58473     -928.41495     -1041.0279      4345.7013    
     96890   313.44139     -928.4704      -1341.0448      4347.676     
     96900   308.79236     -928.44294     -1556.2602      4348.8099    
     96910   312.35084     -928.65986     -1771.337       4348.9642    
     96920   285.54666     -928.03846     -1739.237       4348.0224    
     96930   283.49462     -928.0944      -1487.9781      4346.0051    
     96940   304.45564     -928.79118     -916.25374      4343.0814    
     96950   276.204       -928.11121      77.104551      4339.6245    
     96960   272.15003     -928.08052      963.34981      4336.2284    
     96970   310.59093     -929.2221       1515.4823      4333.436     
     96980   305.81385     -929.16636      1984.5608      4331.6048    
     96990   277.20987     -928.43946      2243.772       4331.0173    
     97000   291.12994     -928.88538      1945.0058      4331.8079    
     97010   277.67861     -928.56001      1430.2883      4333.8101    
     97020   272.60191     -928.45212      713.00937      4336.6977    
     97030   300.7129      -929.25486     -177.76964      4340.0229    
     97040   290.25669     -928.98063     -998.03338      4343.2396    
     97050   259.44807     -928.13057     -1621.3832      4345.8389    
     97060   269.03417     -928.38834     -2013.9852      4347.4276    
     97070   267.6794      -928.32486     -1896.2906      4347.7782    
     97080   282.97653     -928.71116     -1539.4205      4346.9501    
     97090   311.67488     -929.45973     -1125.6719      4345.1617    
     97100   298.89794     -929.05634     -445.01341      4342.6911    
     97110   285.74055     -928.64408      303.38817      4339.9581    
     97120   305.89859     -929.15236      720.03581      4337.4086    
     97130   289.86451     -928.652        1016.3191      4335.3176    
     97140   267.51411     -927.97485      1285.1814      4333.873     
     97150   283.9686      -928.36375      1470.0739      4333.2373    
     97160   291.82188     -928.49925      1554.4919      4333.524     
     97170   291.58605     -928.40528      1388.6263      4334.7771    
     97180   301.91916     -928.6011       864.3855       4336.885     
     97190   300.57306     -928.47151      230.63919      4339.5343    
     97200   294.25078     -928.20735     -379.09487      4342.3345    
     97210   292.11258     -928.06157     -1002.6948      4344.8988    
     97220   292.36541     -927.98413     -1506.3794      4346.8406    
     97230   288.37859     -927.7926      -1647.7763      4347.8588    
     97240   309.29924     -928.29905     -1616.8136      4347.8493    
     97250   324.68653     -928.66362     -1327.6231      4346.8409    
     97260   320.87907     -928.51782     -789.99807      4345.0167    
     97270   307.59893     -928.12717     -227.997        4342.7049    
     97280   315.71477     -928.34198      186.61313      4340.2493    
     97290   312.20974     -928.2424       671.4174       4337.9251    
     97300   295.4288      -927.7782       1147.1023      4336.0311    
     97310   303.42712     -928.00208      1326.4664      4334.848     
     97320   306.54405     -928.09275      1279.5796      4334.4905    
     97330   278.35405     -927.31202      1210.3209      4334.9428    
     97340   291.85876     -927.6838       928.254        4336.1469    
     97350   320.53905     -928.47432      577.30703      4337.9367    
     97360   310.93374     -928.20883      278.57653      4340.1003    
     97370   296.95582     -927.82666     -161.62029      4342.4384    
     97380   314.9081      -928.3331      -704.13122      4344.676     
     97390   320.90566     -928.51313     -1077.7329      4346.4884    
     97400   326.68049     -928.70044     -1416.3185      4347.6292    
     97410   315.88844     -928.44253     -1622.1059      4347.8903    
     97420   285.72129     -927.65009     -1521.8111      4347.1511    
     97430   286.29425     -927.70618     -1229.9843      4345.4665    
     97440   295.19663     -927.98774     -716.91362      4343.0234    
     97450   293.97324     -927.98378      0.060934269    4340.1455    
     97460   303.06467     -928.26399      705.99381      4337.2715    
     97470   312.70235     -928.56232      1335.8517      4334.8417    
     97480   309.4693      -928.51023      1855.5744      4333.2501    
     97490   306.23184     -928.46641      2026.6247      4332.808     
     97500   297.93558     -928.28756      1761.5329      4333.619     
     97510   288.8486      -928.08701      1199.4665      4335.5276    
     97520   290.21947     -928.1732       459.54266      4338.1899    
     97530   292.30421     -928.27586     -300.54354      4341.1516    
     97540   286.30825     -928.1493      -886.26793      4343.9466    
     97550   295.45092     -928.4399      -1324.2638      4346.2026    
     97560   308.93796     -928.8539      -1607.7779      4347.6415    
     97570   307.64776     -928.86622     -1635.4679      4348.0882    
     97580   298.54431     -928.6696      -1487.4002      4347.5183    
     97590   293.53412     -928.59146     -1265.019       4346.0169    
     97600   281.14195     -928.30801     -846.40536      4343.7311    
     97610   272.40321     -928.11884     -270.36908      4340.9216    
     97620   282.19816     -928.43625      318.8753       4337.9419    
     97630   292.73299     -928.77092      961.64708      4335.1651    
     97640   281.97007     -928.51211      1647.533       4332.9949    
     97650   277.03394     -928.40951      2092.3034      4331.8463    
     97660   305.92288     -929.24679      2019.3886      4331.9839    
     97670   305.4765      -929.27771      1578.4705      4333.3765    
     97680   282.63592     -928.69181      897.80964      4335.7597    
     97690   279.9024      -928.66293      85.865073      4338.715     
     97700   267.1488      -928.34694     -589.1177       4341.7518    
     97710   267.67493     -928.38799     -1189.7204      4344.4387    
     97720   282.19344     -928.80661     -1631.3094      4346.4       
     97730   285.52782     -928.90695     -1762.7574      4347.3616    
     97740   284.65721     -928.8843      -1682.5651      4347.2299    
     97750   292.87911     -929.10843     -1468.432       4346.0456    
     97760   284.88511     -928.87526     -958.66867      4343.951     
     97770   278.36638     -928.67285     -291.87771      4341.2567    
     97780   295.27289     -929.10771      294.3722       4338.3662    
     97790   285.78869     -928.79657      928.75425      4335.6573    
     97800   271.72354     -928.34742      1483.8227      4333.5214    
     97810   281.53683     -928.54404      1749.7826      4332.2966    
     97820   283.47302     -928.50298      1745.619       4332.1555    
     97830   281.8347      -928.34935      1528.8449      4333.1056    
     97840   293.68791     -928.55778      1149.3808      4335.0202    
     97850   302.43626     -928.67035      687.12176      4337.6741    
     97860   302.87088     -928.5539       81.420038      4340.7789    
     97870   299.08639     -928.32756     -644.32259      4343.9584    
     97880   291.82074     -928.01252     -1310.3505      4346.7653    
     97890   306.49489     -928.31298     -1815.5653      4348.7794    
     97900   324.6237      -928.71755     -2061.4554      4349.6787    
     97910   309.9761      -928.23166     -1946.3486      4349.3046    
     97920   290.98726     -927.64323     -1571.2311      4347.713     
     97930   296.72325     -927.74598     -1035.4597      4345.1268    
     97940   311.86524     -928.11042     -305.1692       4341.8798    
     97950   308.35509     -927.96229      587.05418      4338.4273    
     97960   298.38658     -927.64143      1358.4302      4335.314     
     97970   307.11094     -927.84317      1790.8165      4333.0142    
     97980   313.54797     -927.98618      2079.6204      4331.819     
     97990   309.24405     -927.83989      2238.7933      4331.9207    
     98000   320.17278     -928.12589      2001.5525      4333.4195    
     98010   340.17043     -928.67864      1307.7673      4336.1794    
     98020   312.68249     -927.92933      485.6997       4339.8027    
     98030   298.39102     -927.5525      -485.70737      4343.7798    
     98040   322.12502     -928.23462     -1517.4042      4347.5058    
     98050   311.98768     -927.98437     -2272.2905      4350.3425    
     98060   296.21232     -927.58372     -2662.3643      4351.7997    
     98070   310.16622     -928.01577     -2634.2491      4351.6102    
     98080   298.688       -927.74774     -2048.5992      4349.7782    
     98090   294.67402     -927.68834     -1232.6068      4346.6333    
     98100   313.28112     -928.26141     -394.38459      4342.6633    
     98110   305.27129     -928.1015       575.38371      4338.3967    
     98120   302.12703     -928.08112      1462.6746      4334.4284    
     98130   314.43366     -928.50073      2108.2858      4331.3113    
     98140   297.61201     -928.12293      2641.7063      4329.4739    
     98150   291.14876     -928.03646      2792.3335      4329.257     
     98160   319.61093     -928.93571      2355.1519      4330.7724    
     98170   309.22319     -928.77438      1643.4144      4333.8028    
     98180   296.03356     -928.5397       616.68298      4337.9269    
     98190   290.89036     -928.52576     -572.00991      4342.5303    
     98200   272.9344      -928.13971     -1656.884       4346.8851    
     98210   274.38355     -928.27255     -2533.795       4350.2993    
     98220   286.96611     -928.70253     -3068.5059      4352.1968    
     98230   277.77023     -928.51686     -3015.686       4352.2141    
     98240   272.0095      -928.41095     -2435.563       4350.3373    
     98250   288.71795     -928.91628     -1587.9115      4346.877     
     98260   286.42675     -928.8811      -473.73522      4342.3403    
     98270   291.55489     -929.04042      702.23116      4337.3992    
     98280   300.2409      -929.29045      1739.7699      4332.7793    
     98290   285.82166     -928.89341      2538.0465      4329.1382    
     98300   270.4833      -928.46374      3017.2362      4326.9989    
     98310   273.35        -928.53042      3013.2991      4326.6923    
     98320   286.73091     -928.88189      2536.9056      4328.2674    
     98330   287.98182     -928.89325      1808.7334      4331.492     
     98340   276.85196     -928.55752      896.21694      4335.9607    
     98350   282.74955     -928.68793     -249.15873      4341.131     
     98360   297.07993     -929.04563     -1448.2059      4346.3071    
     98370   285.65437     -928.68659     -2441.9101      4350.7376    
     98380   277.28001     -928.41291     -3173.7784      4353.7611    
     98390   288.24197     -928.67576     -3507.6296      4354.8676    
     98400   282.59338     -928.47866     -3232.0264      4353.7938    
     98410   278.8899      -928.33751     -2489.4506      4350.6394    
     98420   292.68592     -928.67904     -1423.7722      4345.8109    
     98430   292.57825     -928.62981     -45.829751      4339.9429    
     98440   292.54265     -928.57919      1388.6046      4333.8699    
     98450   300.65353     -928.75218      2685.87        4328.4882    
     98460   283.51243     -928.22409      3744.2286      4324.636     
     98470   286.44153     -928.256        4151.2444      4323.0049    
     98480   317.52266     -929.07293      3815.7872      4323.9174    
     98490   300.56418     -928.5651       3117.4859      4327.2727    
     98500   293.66718     -928.34553      1855.7588      4332.7005    
     98510   299.46458     -928.47368      130.71363      4339.4804    
     98520   283.22758     -927.98111     -1547.4658      4346.5894    
     98530   281.92711     -927.89332     -2999.7337      4352.9681    
     98540   304.20342     -928.45159     -4024.1759      4357.6629    
     98550   300.818       -928.29916     -4375.5927      4359.9653    
     98560   298.8034      -928.19525     -4202.3538      4359.5558    
     98570   306.9338      -928.38044     -3598.4393      4356.4534    
     98580   298.44343     -928.10845     -2412.6265      4350.9785    
     98590   303.40127     -928.20889     -786.15975      4343.8198    
     98600   311.49793     -928.39038      1010.1023      4335.9602    
     98610   286.81914     -927.6561       2816.1648      4328.5214    
     98620   286.26786     -927.58527      4269.5565      4322.6402    
     98630   324.69165     -928.59301      5095.1653      4319.2609    
     98640   325.62037     -928.57257      5336.8633      4318.9794    
     98650   315.85295     -928.28052      4701.085       4322.0222    
     98660   323.86207     -928.49842      3118.769       4328.0886    
     98670   316.40574     -928.29406      1033.6965      4336.3001    
     98680   291.72974     -927.60755     -1098.9756      4345.4242    
     98690   288.82132     -927.51319     -3118.4214      4354.1275    
     98700   294.45504     -927.64316     -4798.3547      4361.1046    
     98710   303.66288     -927.87173     -5795.1224      4365.2305    
     98720   301.68848     -927.79902     -5837.6835      4365.7913    
     98730   303.02728     -927.82881     -5010.4994      4362.6589    
     98740   319.39957     -928.28195     -3484.3455      4356.2719    
     98750   310.49175     -928.03229     -1381.3512      4347.5427    
     98760   310.29        -928.01731      946.04464      4337.7569    
     98770   329.49922     -928.53504      3128.5573      4328.3597    
     98780   317.39105     -928.18915      4924.1315      4320.7291    
     98790   307.97118     -927.93456      5946.3324      4316.0046    
     98800   319.16037     -928.27724      6042.9279      4314.874     
     98810   306.18581     -927.97621      5321.7469      4317.4797    
     98820   292.39822     -927.66724      3882.092       4323.462     
     98830   305.05294     -928.09743      1861.6098      4332.0034    
     98840   289.44994     -927.73572     -259.83745      4341.9195    
     98850   294.02443     -927.91952     -2452.0201      4351.8901    
     98860   322.82372     -928.77536     -4562.2752      4360.5146    
     98870   304.15393     -928.32305     -6002.1187      4366.4343    
     98880   287.33008     -927.93281     -6586.918       4368.6635    
     98890   287.03601     -928.0125      -6143.3539      4366.7618    
     98900   281.84559     -927.96012     -4713.6713      4360.9457    
     98910   292.2797      -928.33432     -2653.7792      4352.0621    
     98920   318.20795     -929.13168     -224.82859      4341.3839    
     98930   309.28113     -928.95192      2407.2805      4330.4356    
     98940   301.80541     -928.8018       4653.3652      4320.8444    
     98950   303.09508     -928.89614      6120.2354      4314.0107    
     98960   275.58095     -928.19437      6783.8137      4310.8786    
     98970   266.76585     -928.01181      6460.7642      4311.8948    
     98980   285.19142     -928.58772      5185.2013      4316.922     
     98990   275.69215     -928.38078      3313.0501      4325.2543    
     99000   272.63436     -928.33208      982.86147      4335.7854    
     99010   294.23547     -928.9418      -1621.3686      4347.0925    
     99020   298.35304     -929.04444     -4029.3482      4357.556     
     99030   295.59541     -928.94897     -5870.5398      4365.6319    
     99040   288.31506     -928.73244     -6841.2674      4370.1082    
     99050   279.93551     -928.49565     -6851.0202      4370.3104    
     99060   282.49751     -928.57081     -6010.3869      4366.1748    
     99070   280.98139     -928.53044     -4311.3474      4358.2077    
     99080   282.69136     -928.56294     -1882.2041      4347.4703    
     99090   295.91257     -928.88606      926.58317      4335.4818    
     99100   287.80612     -928.58658      3670.465       4323.9932    
     99110   274.08736     -928.11096      5870.6969      4314.7008    
     99120   286.83093     -928.35777      7249.3783      4308.9655    
     99130   302.5934      -928.68609      7653.9611      4307.6509    
     99140   306.91257     -928.70788      7000.9241      4311.0406    
     99150   309.89004     -928.70469      5189.5098      4318.775     
     99160   299.5661      -928.3307       2518.1849      4329.801     
     99170   295.64244     -928.11934     -526.45543      4342.5157    
     99180   305.93221     -928.2779      -3434.1851      4355.0403    
     99190   287.99406     -927.64157     -5715.5515      4365.5394    
     99200   283.63908     -927.39043     -7258.5827      4372.5207    
     99210   311.72094     -928.0544      -7870.2169      4374.9599    
     99220   313.70241     -928.02291     -7229.132       4372.4468    
     99230   310.25098     -927.87567     -5505.1904      4365.3619    
     99240   336.3632      -928.56682     -3108.4147      4354.7806    
     99250   329.00389     -928.33529     -190.55558      4342.2322    
     99260   298.52349     -927.45902      2785.7859      4329.5448    
     99270   297.83695     -927.39865      5305.1479      4318.5597    
     99280   310.27724     -927.70187      7141.4472      4310.8295    
     99290   313.47586     -927.7675       8033.8518      4307.4737    
     99300   326.389       -928.13711      7631.9634      4309.0299    
     99310   319.22045     -927.97974      6056.6013      4315.2827    
     99320   315.15191     -927.92144      3637.6869      4325.3105    
     99330   320.20988     -928.11134      777.72365      4337.6619    
     99340   303.92208     -927.69043     -2136.1488      4350.5804    
     99350   299.80446     -927.5864      -4864.4387      4362.2293    
     99360   312.75973     -927.94969     -6954.8551      4370.8729    
     99370   307.18783     -927.81296     -7862.3637      4375.1744    
     99380   293.83602     -927.48124     -7509.3646      4374.5326    
     99390   311.32923     -928.0239      -6273.3798      4369.1437    
     99400   332.1278      -928.67374     -4292.8501      4359.8015    
     99410   316.49481     -928.31462     -1552.4741      4347.7927    
     99420   303.78383     -928.0188       1468.0137      4334.8456    
     99430   308.19905     -928.177        4205.4237      4322.836     
     99440   302.54365     -928.04548      6381.0003      4313.451     
     99450   292.6506      -927.79805      7618.3795      4307.9996    
     99460   303.91899     -928.15462      7759.7768      4307.2204    
     99470   297.77584     -928.0465       6938.1689      4311.207     
     99480   290.19283     -927.90555      5028.6213      4319.4568    
     99490   297.9133      -928.17837      2251.9642      4330.8189    
     99500   304.75514     -928.40438     -759.28105      4343.6117    
     99510   303.29672     -928.37661     -3555.4873      4355.9666    
     99520   312.97825     -928.64747     -5862.4434      4366.1121    
     99530   306.50633     -928.47659     -7259.4138      4372.5842    
     99540   292.77985     -928.12032     -7586.3381      4374.4845    
     99550   303.78584     -928.47012     -6975.9601      4371.5966    
     99560   303.72357     -928.52707     -5486.2162      4364.3269    
     99570   284.17797     -928.04015     -3178.7575      4353.6558    
     99580   278.13398     -927.90364     -358.40142      4341.0625    
     99590   288.76095     -928.19663      2618.0475      4328.328     
     99600   297.17462     -928.40329      5307.581       4317.2915    
     99610   297.88156     -928.3907       7209.2727      4309.575     
     99620   300.47922     -928.44472      8057.8178      4306.3078    
     99630   300.82961     -928.46056      7759.6158      4307.9807    
     99640   293.79509     -928.29074      6252.9956      4314.3945    
     99650   290.82256     -928.23529      3780.315       4324.6351    
     99660   292.50175     -928.29092      862.42693      4337.2037    
     99670   304.85954     -928.61746     -2169.462       4350.2937    
     99680   315.4494      -928.87782     -4889.9434      4362.0081    
     99690   305.9302      -928.58117     -6824.0381      4370.635     
     99700   288.10881     -928.06801     -7821.6524      4374.9409    
     99710   289.79988     -928.11526     -7785.0794      4374.3028    
     99720   296.68041     -928.3246      -6606.564       4368.7791    
     99730   281.02225     -927.91152     -4357.3883      4359.167     
     99740   293.00268     -928.25229     -1558.8977      4346.9138    
     99750   299.39291     -928.41243      1547.8923      4333.8159    
     99760   287.62942     -928.04616      4472.2701      4321.8053    
     99770   298.21957     -928.29113      6605.3015      4312.6483    
     99780   314.81546     -928.71463      7755.0329      4307.6122    
     99790   297.94936     -928.23621      7901.4353      4307.358     
     99800   292.6819      -928.10443      6833.9139      4311.9265    
     99810   302.6738      -928.40617      4722.1662      4320.6498    
     99820   294.03713     -928.18212      2023.0831      4332.2394    
     99830   317.39107     -928.829       -1003.2473      4345.0199    
     99840   325.54303     -929.04024     -3775.9004      4357.1182    
     99850   288.36991     -927.98943     -5922.2043      4366.7941    
     99860   280.50266     -927.75295     -7404.729       4372.6832    
     99870   298.19692     -928.23842     -7836.5497      4373.8787    
     99880   271.09844     -927.49452     -6822.1749      4370.1699    
     99890   282.25083     -927.81622     -4915.5335      4362.2256    
     99900   320.42052     -928.87681     -2452.0538      4351.3009    
     99910   308.6886      -928.53784      509.81183      4339.0038    
     99920   307.41739     -928.47654      3314.7884      4327.1781    
     99930   313.38489     -928.60893      5513.3178      4317.5371    
     99940   296.91971     -928.12598      6920.9914      4311.3923    
     99950   287.16703     -927.84393      7266.6802      4309.541     
     99960   298.04417     -928.15063      6532.9341      4312.14      
     99970   285.26516     -927.80676      5116.3221      4318.7241    
     99980   301.83872     -928.27494      2929.8428      4328.3854    
     99990   313.55089     -928.59265      292.28836      4339.771     
    100000   306.11088     -928.36408     -2340.7486      4351.2456    
Loop time of 10.6697 on 1 procs for 50000 steps with 216 atoms

Performance: 404.883 ns/day, 0.059 hours/ns, 4686.150 timesteps/s, 1.012 Matom-step/s
98.9% CPU use with 1 MPI tasks x 1 OpenMP threads

MPI task timing breakdown:
Section |  min time  |  avg time  |  max time  |%varavg| %total
---------------------------------------------------------------
Pair    | 10.098     | 10.098     | 10.098     |   0.0 | 94.64
Neigh   | 0          | 0          | 0          |   0.0 |  0.00
Comm    | 0.14066    | 0.14066    | 0.14066    |   0.0 |  1.32
Output  | 0.043269   | 0.043269   | 0.043269   |   0.0 |  0.41
Modify  | 0.35293    | 0.35293    | 0.35293    |   0.0 |  3.31
Other   |            | 0.0346     |            |       |  0.32

Nlocal:            216 ave         216 max         216 min
Histogram: 1 0 0 0 0 0 0 0 0 0
Nghost:            950 ave         950 max         950 min
Histogram: 1 0 0 0 0 0 0 0 0 0
Neighs:              0 ave           0 max           0 min
Histogram: 1 0 0 0 0 0 0 0 0 0
FullNghs:         7418 ave        7418 max        7418 min
Histogram: 1 0 0 0 0 0 0 0 0 0

Total # of neighbors = 7418
Ave neighs/atom = 34.342593
Neighbor list builds = 0
Dangerous builds = 0

print "Lattice parameter simulation completed for Si at ${temperature} K."
Lattice parameter simulation completed for Si at 300 K.
Total wall time: 0:00:27
