LAMMPS data file via write_data, version 27 Jun 2024, timestep = 1, units = metal

216 atoms
1 atom types

0 16.049999999999997 xlo xhi
0 16.049999999999997 ylo yhi
0 16.049999999999997 zlo zhi

Masses

1 28.02

Atoms # atomic

1 1 0.000000 0.000000 0.000000
2 1 5.350000 0.000000 0.000000
3 1 10.700000 0.000000 0.000000
4 1 2.675000 2.675000 0.000000
5 1 8.025000 2.675000 0.000000
6 1 13.375000 2.675000 0.000000
7 1 0.000000 5.350000 0.000000
8 1 5.350000 5.350000 0.000000
9 1 10.700000 5.350000 0.000000
10 1 2.675000 8.025000 0.000000
11 1 8.025000 8.025000 0.000000
12 1 13.375000 8.025000 0.000000
13 1 0.000000 10.700000 0.000000
14 1 5.350000 10.700000 0.000000
15 1 10.700000 10.700000 0.000000
16 1 2.675000 13.375000 0.000000
17 1 8.025000 13.375000 0.000000
18 1 13.375000 13.375000 0.000000
19 1 1.337500 1.337500 1.337500
20 1 6.687500 1.337500 1.337500
21 1 12.037500 1.337500 1.337500
22 1 4.012500 4.012500 1.337500
23 1 9.362500 4.012500 1.337500
24 1 14.712500 4.012500 1.337500
25 1 1.337500 6.687500 1.337500
26 1 6.687500 6.687500 1.337500
27 1 12.037500 6.687500 1.337500
28 1 4.012500 9.362500 1.337500
29 1 9.362500 9.362500 1.337500
30 1 14.712500 9.362500 1.337500
31 1 1.337500 12.037500 1.337500
32 1 6.687500 12.037500 1.337500
33 1 12.037500 12.037500 1.337500
34 1 4.012500 14.712500 1.337500
35 1 9.362500 14.712500 1.337500
36 1 14.712500 14.712500 1.337500
37 1 2.675000 0.000000 2.675000
38 1 8.025000 0.000000 2.675000
39 1 13.375000 0.000000 2.675000
40 1 0.000000 2.675000 2.675000
41 1 5.350000 2.675000 2.675000
42 1 10.700000 2.675000 2.675000
43 1 2.675000 5.350000 2.675000
44 1 8.025000 5.350000 2.675000
45 1 13.375000 5.350000 2.675000
46 1 0.000000 8.025000 2.675000
47 1 5.350000 8.025000 2.675000
48 1 10.700000 8.025000 2.675000
49 1 2.675000 10.700000 2.675000
50 1 8.025000 10.700000 2.675000
51 1 13.375000 10.700000 2.675000
52 1 0.000000 13.375000 2.675000
53 1 5.350000 13.375000 2.675000
54 1 10.700000 13.375000 2.675000
55 1 4.012500 1.337500 4.012500
56 1 9.362500 1.337500 4.012500
57 1 14.712500 1.337500 4.012500
58 1 1.337500 4.012500 4.012500
59 1 6.687500 4.012500 4.012500
60 1 12.037500 4.012500 4.012500
61 1 4.012500 6.687500 4.012500
62 1 9.362500 6.687500 4.012500
63 1 14.712500 6.687500 4.012500
64 1 1.337500 9.362500 4.012500
65 1 6.687500 9.362500 4.012500
66 1 12.037500 9.362500 4.012500
67 1 4.012500 12.037500 4.012500
68 1 9.362500 12.037500 4.012500
69 1 14.712500 12.037500 4.012500
70 1 1.337500 14.712500 4.012500
71 1 6.687500 14.712500 4.012500
72 1 12.037500 14.712500 4.012500
73 1 0.000000 0.000000 5.350000
74 1 5.350000 0.000000 5.350000
75 1 10.700000 0.000000 5.350000
76 1 2.675000 2.675000 5.350000
77 1 8.025000 2.675000 5.350000
78 1 13.375000 2.675000 5.350000
79 1 0.000000 5.350000 5.350000
80 1 5.350000 5.350000 5.350000
81 1 10.700000 5.350000 5.350000
82 1 2.675000 8.025000 5.350000
83 1 8.025000 8.025000 5.350000
84 1 13.375000 8.025000 5.350000
85 1 0.000000 10.700000 5.350000
86 1 5.350000 10.700000 5.350000
87 1 10.700000 10.700000 5.350000
88 1 2.675000 13.375000 5.350000
89 1 8.025000 13.375000 5.350000
90 1 13.375000 13.375000 5.350000
91 1 1.337500 1.337500 6.687500
92 1 6.687500 1.337500 6.687500
93 1 12.037500 1.337500 6.687500
94 1 4.012500 4.012500 6.687500
95 1 9.362500 4.012500 6.687500
96 1 14.712500 4.012500 6.687500
97 1 1.337500 6.687500 6.687500
98 1 6.687500 6.687500 6.687500
99 1 12.037500 6.687500 6.687500
100 1 4.012500 9.362500 6.687500
101 1 9.362500 9.362500 6.687500
102 1 14.712500 9.362500 6.687500
103 1 1.337500 12.037500 6.687500
104 1 6.687500 12.037500 6.687500
105 1 12.037500 12.037500 6.687500
106 1 4.012500 14.712500 6.687500
107 1 9.362500 14.712500 6.687500
108 1 14.712500 14.712500 6.687500
109 1 2.675000 0.000000 8.025000
110 1 8.025000 0.000000 8.025000
111 1 13.375000 0.000000 8.025000
112 1 0.000000 2.675000 8.025000
113 1 5.350000 2.675000 8.025000
114 1 10.700000 2.675000 8.025000
115 1 2.675000 5.350000 8.025000
116 1 8.025000 5.350000 8.025000
117 1 13.375000 5.350000 8.025000
118 1 0.000000 8.025000 8.025000
119 1 5.350000 8.025000 8.025000
120 1 10.700000 8.025000 8.025000
121 1 2.675000 10.700000 8.025000
122 1 8.025000 10.700000 8.025000
123 1 13.375000 10.700000 8.025000
124 1 0.000000 13.375000 8.025000
125 1 5.350000 13.375000 8.025000
126 1 10.700000 13.375000 8.025000
127 1 4.012500 1.337500 9.362500
128 1 9.362500 1.337500 9.362500
129 1 14.712500 1.337500 9.362500
130 1 1.337500 4.012500 9.362500
131 1 6.687500 4.012500 9.362500
132 1 12.037500 4.012500 9.362500
133 1 4.012500 6.687500 9.362500
134 1 9.362500 6.687500 9.362500
135 1 14.712500 6.687500 9.362500
136 1 1.337500 9.362500 9.362500
137 1 6.687500 9.362500 9.362500
138 1 12.037500 9.362500 9.362500
139 1 4.012500 12.037500 9.362500
140 1 9.362500 12.037500 9.362500
141 1 14.712500 12.037500 9.362500
142 1 1.337500 14.712500 9.362500
143 1 6.687500 14.712500 9.362500
144 1 12.037500 14.712500 9.362500
145 1 0.000000 0.000000 10.700000
146 1 5.350000 0.000000 10.700000
147 1 10.700000 0.000000 10.700000
148 1 2.675000 2.675000 10.700000
149 1 8.025000 2.675000 10.700000
150 1 13.375000 2.675000 10.700000
151 1 0.000000 5.350000 10.700000
152 1 5.350000 5.350000 10.700000
153 1 10.700000 5.350000 10.700000
154 1 2.675000 8.025000 10.700000
155 1 8.025000 8.025000 10.700000
156 1 13.375000 8.025000 10.700000
157 1 0.000000 10.700000 10.700000
158 1 5.350000 10.700000 10.700000
159 1 10.700000 10.700000 10.700000
160 1 2.675000 13.375000 10.700000
161 1 8.025000 13.375000 10.700000
162 1 13.375000 13.375000 10.700000
163 1 1.337500 1.337500 12.037500
164 1 6.687500 1.337500 12.037500
165 1 12.037500 1.337500 12.037500
166 1 4.012500 4.012500 12.037500
167 1 9.362500 4.012500 12.037500
168 1 14.712500 4.012500 12.037500
169 1 1.337500 6.687500 12.037500
170 1 6.687500 6.687500 12.037500
171 1 12.037500 6.687500 12.037500
172 1 4.012500 9.362500 12.037500
173 1 9.362500 9.362500 12.037500
174 1 14.712500 9.362500 12.037500
175 1 1.337500 12.037500 12.037500
176 1 6.687500 12.037500 12.037500
177 1 12.037500 12.037500 12.037500
178 1 4.012500 14.712500 12.037500
179 1 9.362500 14.712500 12.037500
180 1 14.712500 14.712500 12.037500
181 1 2.675000 0.000000 13.375000
182 1 8.025000 0.000000 13.375000
183 1 13.375000 0.000000 13.375000
184 1 0.000000 2.675000 13.375000
185 1 5.350000 2.675000 13.375000
186 1 10.700000 2.675000 13.375000
187 1 2.675000 5.350000 13.375000
188 1 8.025000 5.350000 13.375000
189 1 13.375000 5.350000 13.375000
190 1 0.000000 8.025000 13.375000
191 1 5.350000 8.025000 13.375000
192 1 10.700000 8.025000 13.375000
193 1 2.675000 10.700000 13.375000
194 1 8.025000 10.700000 13.375000
195 1 13.375000 10.700000 13.375000
196 1 0.000000 13.375000 13.375000
197 1 5.350000 13.375000 13.375000
198 1 10.700000 13.375000 13.375000
199 1 4.012500 1.337500 14.712500
200 1 9.362500 1.337500 14.712500
201 1 14.712500 1.337500 14.712500
202 1 1.337500 4.012500 14.712500
203 1 6.687500 4.012500 14.712500
204 1 12.037500 4.012500 14.712500
205 1 4.012500 6.687500 14.712500
206 1 9.362500 6.687500 14.712500
207 1 14.712500 6.687500 14.712500
208 1 1.337500 9.362500 14.712500
209 1 6.687500 9.362500 14.712500
210 1 12.037500 9.362500 14.712500
211 1 4.012500 12.037500 14.712500
212 1 9.362500 12.037500 14.712500
213 1 14.712500 12.037500 14.712500
214 1 1.337500 14.712500 14.712500
215 1 6.687500 14.712500 14.712500
216 1 12.037500 14.712500 14.712500
