LAMMPS data file via write_data, version 27 Jun 2024, timestep = 1, units = metal

216 atoms
1 atom types

0 17.1 xlo xhi
0 17.1 ylo yhi
0 17.1 zlo zhi

Masses

1 28.02

Atoms # atomic

1 1 0.000000 0.000000 0.000000
2 1 5.700000 0.000000 0.000000
3 1 11.400000 0.000000 0.000000
4 1 2.850000 2.850000 0.000000
5 1 8.550000 2.850000 0.000000
6 1 14.250000 2.850000 0.000000
7 1 0.000000 5.700000 0.000000
8 1 5.700000 5.700000 0.000000
9 1 11.400000 5.700000 0.000000
10 1 2.850000 8.550000 0.000000
11 1 8.550000 8.550000 0.000000
12 1 14.250000 8.550000 0.000000
13 1 0.000000 11.400000 0.000000
14 1 5.700000 11.400000 0.000000
15 1 11.400000 11.400000 0.000000
16 1 2.850000 14.250000 0.000000
17 1 8.550000 14.250000 0.000000
18 1 14.250000 14.250000 0.000000
19 1 1.425000 1.425000 1.425000
20 1 7.125000 1.425000 1.425000
21 1 12.825000 1.425000 1.425000
22 1 4.275000 4.275000 1.425000
23 1 9.975000 4.275000 1.425000
24 1 15.675000 4.275000 1.425000
25 1 1.425000 7.125000 1.425000
26 1 7.125000 7.125000 1.425000
27 1 12.825000 7.125000 1.425000
28 1 4.275000 9.975000 1.425000
29 1 9.975000 9.975000 1.425000
30 1 15.675000 9.975000 1.425000
31 1 1.425000 12.825000 1.425000
32 1 7.125000 12.825000 1.425000
33 1 12.825000 12.825000 1.425000
34 1 4.275000 15.675000 1.425000
35 1 9.975000 15.675000 1.425000
36 1 15.675000 15.675000 1.425000
37 1 2.850000 0.000000 2.850000
38 1 8.550000 0.000000 2.850000
39 1 14.250000 0.000000 2.850000
40 1 0.000000 2.850000 2.850000
41 1 5.700000 2.850000 2.850000
42 1 11.400000 2.850000 2.850000
43 1 2.850000 5.700000 2.850000
44 1 8.550000 5.700000 2.850000
45 1 14.250000 5.700000 2.850000
46 1 0.000000 8.550000 2.850000
47 1 5.700000 8.550000 2.850000
48 1 11.400000 8.550000 2.850000
49 1 2.850000 11.400000 2.850000
50 1 8.550000 11.400000 2.850000
51 1 14.250000 11.400000 2.850000
52 1 0.000000 14.250000 2.850000
53 1 5.700000 14.250000 2.850000
54 1 11.400000 14.250000 2.850000
55 1 4.275000 1.425000 4.275000
56 1 9.975000 1.425000 4.275000
57 1 15.675000 1.425000 4.275000
58 1 1.425000 4.275000 4.275000
59 1 7.125000 4.275000 4.275000
60 1 12.825000 4.275000 4.275000
61 1 4.275000 7.125000 4.275000
62 1 9.975000 7.125000 4.275000
63 1 15.675000 7.125000 4.275000
64 1 1.425000 9.975000 4.275000
65 1 7.125000 9.975000 4.275000
66 1 12.825000 9.975000 4.275000
67 1 4.275000 12.825000 4.275000
68 1 9.975000 12.825000 4.275000
69 1 15.675000 12.825000 4.275000
70 1 1.425000 15.675000 4.275000
71 1 7.125000 15.675000 4.275000
72 1 12.825000 15.675000 4.275000
73 1 0.000000 0.000000 5.700000
74 1 5.700000 0.000000 5.700000
75 1 11.400000 0.000000 5.700000
76 1 2.850000 2.850000 5.700000
77 1 8.550000 2.850000 5.700000
78 1 14.250000 2.850000 5.700000
79 1 0.000000 5.700000 5.700000
80 1 5.700000 5.700000 5.700000
81 1 11.400000 5.700000 5.700000
82 1 2.850000 8.550000 5.700000
83 1 8.550000 8.550000 5.700000
84 1 14.250000 8.550000 5.700000
85 1 0.000000 11.400000 5.700000
86 1 5.700000 11.400000 5.700000
87 1 11.400000 11.400000 5.700000
88 1 2.850000 14.250000 5.700000
89 1 8.550000 14.250000 5.700000
90 1 14.250000 14.250000 5.700000
91 1 1.425000 1.425000 7.125000
92 1 7.125000 1.425000 7.125000
93 1 12.825000 1.425000 7.125000
94 1 4.275000 4.275000 7.125000
95 1 9.975000 4.275000 7.125000
96 1 15.675000 4.275000 7.125000
97 1 1.425000 7.125000 7.125000
98 1 7.125000 7.125000 7.125000
99 1 12.825000 7.125000 7.125000
100 1 4.275000 9.975000 7.125000
101 1 9.975000 9.975000 7.125000
102 1 15.675000 9.975000 7.125000
103 1 1.425000 12.825000 7.125000
104 1 7.125000 12.825000 7.125000
105 1 12.825000 12.825000 7.125000
106 1 4.275000 15.675000 7.125000
107 1 9.975000 15.675000 7.125000
108 1 15.675000 15.675000 7.125000
109 1 2.850000 0.000000 8.550000
110 1 8.550000 0.000000 8.550000
111 1 14.250000 0.000000 8.550000
112 1 0.000000 2.850000 8.550000
113 1 5.700000 2.850000 8.550000
114 1 11.400000 2.850000 8.550000
115 1 2.850000 5.700000 8.550000
116 1 8.550000 5.700000 8.550000
117 1 14.250000 5.700000 8.550000
118 1 0.000000 8.550000 8.550000
119 1 5.700000 8.550000 8.550000
120 1 11.400000 8.550000 8.550000
121 1 2.850000 11.400000 8.550000
122 1 8.550000 11.400000 8.550000
123 1 14.250000 11.400000 8.550000
124 1 0.000000 14.250000 8.550000
125 1 5.700000 14.250000 8.550000
126 1 11.400000 14.250000 8.550000
127 1 4.275000 1.425000 9.975000
128 1 9.975000 1.425000 9.975000
129 1 15.675000 1.425000 9.975000
130 1 1.425000 4.275000 9.975000
131 1 7.125000 4.275000 9.975000
132 1 12.825000 4.275000 9.975000
133 1 4.275000 7.125000 9.975000
134 1 9.975000 7.125000 9.975000
135 1 15.675000 7.125000 9.975000
136 1 1.425000 9.975000 9.975000
137 1 7.125000 9.975000 9.975000
138 1 12.825000 9.975000 9.975000
139 1 4.275000 12.825000 9.975000
140 1 9.975000 12.825000 9.975000
141 1 15.675000 12.825000 9.975000
142 1 1.425000 15.675000 9.975000
143 1 7.125000 15.675000 9.975000
144 1 12.825000 15.675000 9.975000
145 1 0.000000 0.000000 11.400000
146 1 5.700000 0.000000 11.400000
147 1 11.400000 0.000000 11.400000
148 1 2.850000 2.850000 11.400000
149 1 8.550000 2.850000 11.400000
150 1 14.250000 2.850000 11.400000
151 1 0.000000 5.700000 11.400000
152 1 5.700000 5.700000 11.400000
153 1 11.400000 5.700000 11.400000
154 1 2.850000 8.550000 11.400000
155 1 8.550000 8.550000 11.400000
156 1 14.250000 8.550000 11.400000
157 1 0.000000 11.400000 11.400000
158 1 5.700000 11.400000 11.400000
159 1 11.400000 11.400000 11.400000
160 1 2.850000 14.250000 11.400000
161 1 8.550000 14.250000 11.400000
162 1 14.250000 14.250000 11.400000
163 1 1.425000 1.425000 12.825000
164 1 7.125000 1.425000 12.825000
165 1 12.825000 1.425000 12.825000
166 1 4.275000 4.275000 12.825000
167 1 9.975000 4.275000 12.825000
168 1 15.675000 4.275000 12.825000
169 1 1.425000 7.125000 12.825000
170 1 7.125000 7.125000 12.825000
171 1 12.825000 7.125000 12.825000
172 1 4.275000 9.975000 12.825000
173 1 9.975000 9.975000 12.825000
174 1 15.675000 9.975000 12.825000
175 1 1.425000 12.825000 12.825000
176 1 7.125000 12.825000 12.825000
177 1 12.825000 12.825000 12.825000
178 1 4.275000 15.675000 12.825000
179 1 9.975000 15.675000 12.825000
180 1 15.675000 15.675000 12.825000
181 1 2.850000 0.000000 14.250000
182 1 8.550000 0.000000 14.250000
183 1 14.250000 0.000000 14.250000
184 1 0.000000 2.850000 14.250000
185 1 5.700000 2.850000 14.250000
186 1 11.400000 2.850000 14.250000
187 1 2.850000 5.700000 14.250000
188 1 8.550000 5.700000 14.250000
189 1 14.250000 5.700000 14.250000
190 1 0.000000 8.550000 14.250000
191 1 5.700000 8.550000 14.250000
192 1 11.400000 8.550000 14.250000
193 1 2.850000 11.400000 14.250000
194 1 8.550000 11.400000 14.250000
195 1 14.250000 11.400000 14.250000
196 1 0.000000 14.250000 14.250000
197 1 5.700000 14.250000 14.250000
198 1 11.400000 14.250000 14.250000
199 1 4.275000 1.425000 15.675000
200 1 9.975000 1.425000 15.675000
201 1 15.675000 1.425000 15.675000
202 1 1.425000 4.275000 15.675000
203 1 7.125000 4.275000 15.675000
204 1 12.825000 4.275000 15.675000
205 1 4.275000 7.125000 15.675000
206 1 9.975000 7.125000 15.675000
207 1 15.675000 7.125000 15.675000
208 1 1.425000 9.975000 15.675000
209 1 7.125000 9.975000 15.675000
210 1 12.825000 9.975000 15.675000
211 1 4.275000 12.825000 15.675000
212 1 9.975000 12.825000 15.675000
213 1 15.675000 12.825000 15.675000
214 1 1.425000 15.675000 15.675000
215 1 7.125000 15.675000 15.675000
216 1 12.825000 15.675000 15.675000
