LAMMPS data file via write_data, version 27 Jun 2024, timestep = 1, units = metal

216 atoms
1 atom types

0 16.35 xlo xhi
0 16.35 ylo yhi
0 16.35 zlo zhi

Masses

1 28.02

Atoms # atomic

1 1 0.000000 0.000000 0.000000
2 1 5.450000 0.000000 0.000000
3 1 10.900000 0.000000 0.000000
4 1 2.725000 2.725000 0.000000
5 1 8.175000 2.725000 0.000000
6 1 13.625000 2.725000 0.000000
7 1 0.000000 5.450000 0.000000
8 1 5.450000 5.450000 0.000000
9 1 10.900000 5.450000 0.000000
10 1 2.725000 8.175000 0.000000
11 1 8.175000 8.175000 0.000000
12 1 13.625000 8.175000 0.000000
13 1 0.000000 10.900000 0.000000
14 1 5.450000 10.900000 0.000000
15 1 10.900000 10.900000 0.000000
16 1 2.725000 13.625000 0.000000
17 1 8.175000 13.625000 0.000000
18 1 13.625000 13.625000 0.000000
19 1 1.362500 1.362500 1.362500
20 1 6.812500 1.362500 1.362500
21 1 12.262500 1.362500 1.362500
22 1 4.087500 4.087500 1.362500
23 1 9.537500 4.087500 1.362500
24 1 14.987500 4.087500 1.362500
25 1 1.362500 6.812500 1.362500
26 1 6.812500 6.812500 1.362500
27 1 12.262500 6.812500 1.362500
28 1 4.087500 9.537500 1.362500
29 1 9.537500 9.537500 1.362500
30 1 14.987500 9.537500 1.362500
31 1 1.362500 12.262500 1.362500
32 1 6.812500 12.262500 1.362500
33 1 12.262500 12.262500 1.362500
34 1 4.087500 14.987500 1.362500
35 1 9.537500 14.987500 1.362500
36 1 14.987500 14.987500 1.362500
37 1 2.725000 0.000000 2.725000
38 1 8.175000 0.000000 2.725000
39 1 13.625000 0.000000 2.725000
40 1 0.000000 2.725000 2.725000
41 1 5.450000 2.725000 2.725000
42 1 10.900000 2.725000 2.725000
43 1 2.725000 5.450000 2.725000
44 1 8.175000 5.450000 2.725000
45 1 13.625000 5.450000 2.725000
46 1 0.000000 8.175000 2.725000
47 1 5.450000 8.175000 2.725000
48 1 10.900000 8.175000 2.725000
49 1 2.725000 10.900000 2.725000
50 1 8.175000 10.900000 2.725000
51 1 13.625000 10.900000 2.725000
52 1 0.000000 13.625000 2.725000
53 1 5.450000 13.625000 2.725000
54 1 10.900000 13.625000 2.725000
55 1 4.087500 1.362500 4.087500
56 1 9.537500 1.362500 4.087500
57 1 14.987500 1.362500 4.087500
58 1 1.362500 4.087500 4.087500
59 1 6.812500 4.087500 4.087500
60 1 12.262500 4.087500 4.087500
61 1 4.087500 6.812500 4.087500
62 1 9.537500 6.812500 4.087500
63 1 14.987500 6.812500 4.087500
64 1 1.362500 9.537500 4.087500
65 1 6.812500 9.537500 4.087500
66 1 12.262500 9.537500 4.087500
67 1 4.087500 12.262500 4.087500
68 1 9.537500 12.262500 4.087500
69 1 14.987500 12.262500 4.087500
70 1 1.362500 14.987500 4.087500
71 1 6.812500 14.987500 4.087500
72 1 12.262500 14.987500 4.087500
73 1 0.000000 0.000000 5.450000
74 1 5.450000 0.000000 5.450000
75 1 10.900000 0.000000 5.450000
76 1 2.725000 2.725000 5.450000
77 1 8.175000 2.725000 5.450000
78 1 13.625000 2.725000 5.450000
79 1 0.000000 5.450000 5.450000
80 1 5.450000 5.450000 5.450000
81 1 10.900000 5.450000 5.450000
82 1 2.725000 8.175000 5.450000
83 1 8.175000 8.175000 5.450000
84 1 13.625000 8.175000 5.450000
85 1 0.000000 10.900000 5.450000
86 1 5.450000 10.900000 5.450000
87 1 10.900000 10.900000 5.450000
88 1 2.725000 13.625000 5.450000
89 1 8.175000 13.625000 5.450000
90 1 13.625000 13.625000 5.450000
91 1 1.362500 1.362500 6.812500
92 1 6.812500 1.362500 6.812500
93 1 12.262500 1.362500 6.812500
94 1 4.087500 4.087500 6.812500
95 1 9.537500 4.087500 6.812500
96 1 14.987500 4.087500 6.812500
97 1 1.362500 6.812500 6.812500
98 1 6.812500 6.812500 6.812500
99 1 12.262500 6.812500 6.812500
100 1 4.087500 9.537500 6.812500
101 1 9.537500 9.537500 6.812500
102 1 14.987500 9.537500 6.812500
103 1 1.362500 12.262500 6.812500
104 1 6.812500 12.262500 6.812500
105 1 12.262500 12.262500 6.812500
106 1 4.087500 14.987500 6.812500
107 1 9.537500 14.987500 6.812500
108 1 14.987500 14.987500 6.812500
109 1 2.725000 0.000000 8.175000
110 1 8.175000 0.000000 8.175000
111 1 13.625000 0.000000 8.175000
112 1 0.000000 2.725000 8.175000
113 1 5.450000 2.725000 8.175000
114 1 10.900000 2.725000 8.175000
115 1 2.725000 5.450000 8.175000
116 1 8.175000 5.450000 8.175000
117 1 13.625000 5.450000 8.175000
118 1 0.000000 8.175000 8.175000
119 1 5.450000 8.175000 8.175000
120 1 10.900000 8.175000 8.175000
121 1 2.725000 10.900000 8.175000
122 1 8.175000 10.900000 8.175000
123 1 13.625000 10.900000 8.175000
124 1 0.000000 13.625000 8.175000
125 1 5.450000 13.625000 8.175000
126 1 10.900000 13.625000 8.175000
127 1 4.087500 1.362500 9.537500
128 1 9.537500 1.362500 9.537500
129 1 14.987500 1.362500 9.537500
130 1 1.362500 4.087500 9.537500
131 1 6.812500 4.087500 9.537500
132 1 12.262500 4.087500 9.537500
133 1 4.087500 6.812500 9.537500
134 1 9.537500 6.812500 9.537500
135 1 14.987500 6.812500 9.537500
136 1 1.362500 9.537500 9.537500
137 1 6.812500 9.537500 9.537500
138 1 12.262500 9.537500 9.537500
139 1 4.087500 12.262500 9.537500
140 1 9.537500 12.262500 9.537500
141 1 14.987500 12.262500 9.537500
142 1 1.362500 14.987500 9.537500
143 1 6.812500 14.987500 9.537500
144 1 12.262500 14.987500 9.537500
145 1 0.000000 0.000000 10.900000
146 1 5.450000 0.000000 10.900000
147 1 10.900000 0.000000 10.900000
148 1 2.725000 2.725000 10.900000
149 1 8.175000 2.725000 10.900000
150 1 13.625000 2.725000 10.900000
151 1 0.000000 5.450000 10.900000
152 1 5.450000 5.450000 10.900000
153 1 10.900000 5.450000 10.900000
154 1 2.725000 8.175000 10.900000
155 1 8.175000 8.175000 10.900000
156 1 13.625000 8.175000 10.900000
157 1 0.000000 10.900000 10.900000
158 1 5.450000 10.900000 10.900000
159 1 10.900000 10.900000 10.900000
160 1 2.725000 13.625000 10.900000
161 1 8.175000 13.625000 10.900000
162 1 13.625000 13.625000 10.900000
163 1 1.362500 1.362500 12.262500
164 1 6.812500 1.362500 12.262500
165 1 12.262500 1.362500 12.262500
166 1 4.087500 4.087500 12.262500
167 1 9.537500 4.087500 12.262500
168 1 14.987500 4.087500 12.262500
169 1 1.362500 6.812500 12.262500
170 1 6.812500 6.812500 12.262500
171 1 12.262500 6.812500 12.262500
172 1 4.087500 9.537500 12.262500
173 1 9.537500 9.537500 12.262500
174 1 14.987500 9.537500 12.262500
175 1 1.362500 12.262500 12.262500
176 1 6.812500 12.262500 12.262500
177 1 12.262500 12.262500 12.262500
178 1 4.087500 14.987500 12.262500
179 1 9.537500 14.987500 12.262500
180 1 14.987500 14.987500 12.262500
181 1 2.725000 0.000000 13.625000
182 1 8.175000 0.000000 13.625000
183 1 13.625000 0.000000 13.625000
184 1 0.000000 2.725000 13.625000
185 1 5.450000 2.725000 13.625000
186 1 10.900000 2.725000 13.625000
187 1 2.725000 5.450000 13.625000
188 1 8.175000 5.450000 13.625000
189 1 13.625000 5.450000 13.625000
190 1 0.000000 8.175000 13.625000
191 1 5.450000 8.175000 13.625000
192 1 10.900000 8.175000 13.625000
193 1 2.725000 10.900000 13.625000
194 1 8.175000 10.900000 13.625000
195 1 13.625000 10.900000 13.625000
196 1 0.000000 13.625000 13.625000
197 1 5.450000 13.625000 13.625000
198 1 10.900000 13.625000 13.625000
199 1 4.087500 1.362500 14.987500
200 1 9.537500 1.362500 14.987500
201 1 14.987500 1.362500 14.987500
202 1 1.362500 4.087500 14.987500
203 1 6.812500 4.087500 14.987500
204 1 12.262500 4.087500 14.987500
205 1 4.087500 6.812500 14.987500
206 1 9.537500 6.812500 14.987500
207 1 14.987500 6.812500 14.987500
208 1 1.362500 9.537500 14.987500
209 1 6.812500 9.537500 14.987500
210 1 12.262500 9.537500 14.987500
211 1 4.087500 12.262500 14.987500
212 1 9.537500 12.262500 14.987500
213 1 14.987500 12.262500 14.987500
214 1 1.362500 14.987500 14.987500
215 1 6.812500 14.987500 14.987500
216 1 12.262500 14.987500 14.987500
