LAMMPS data file via write_data, version 27 Jun 2024, timestep = 1, units = metal

216 atoms
1 atom types

0 15.75 xlo xhi
0 15.75 ylo yhi
0 15.75 zlo zhi

Masses

1 28.02

Atoms # atomic

1 1 0.000000 0.000000 0.000000
2 1 5.250000 0.000000 0.000000
3 1 10.500000 0.000000 0.000000
4 1 2.625000 2.625000 0.000000
5 1 7.875000 2.625000 0.000000
6 1 13.125000 2.625000 0.000000
7 1 0.000000 5.250000 0.000000
8 1 5.250000 5.250000 0.000000
9 1 10.500000 5.250000 0.000000
10 1 2.625000 7.875000 0.000000
11 1 7.875000 7.875000 0.000000
12 1 13.125000 7.875000 0.000000
13 1 0.000000 10.500000 0.000000
14 1 5.250000 10.500000 0.000000
15 1 10.500000 10.500000 0.000000
16 1 2.625000 13.125000 0.000000
17 1 7.875000 13.125000 0.000000
18 1 13.125000 13.125000 0.000000
19 1 1.312500 1.312500 1.312500
20 1 6.562500 1.312500 1.312500
21 1 11.812500 1.312500 1.312500
22 1 3.937500 3.937500 1.312500
23 1 9.187500 3.937500 1.312500
24 1 14.437500 3.937500 1.312500
25 1 1.312500 6.562500 1.312500
26 1 6.562500 6.562500 1.312500
27 1 11.812500 6.562500 1.312500
28 1 3.937500 9.187500 1.312500
29 1 9.187500 9.187500 1.312500
30 1 14.437500 9.187500 1.312500
31 1 1.312500 11.812500 1.312500
32 1 6.562500 11.812500 1.312500
33 1 11.812500 11.812500 1.312500
34 1 3.937500 14.437500 1.312500
35 1 9.187500 14.437500 1.312500
36 1 14.437500 14.437500 1.312500
37 1 2.625000 0.000000 2.625000
38 1 7.875000 0.000000 2.625000
39 1 13.125000 0.000000 2.625000
40 1 0.000000 2.625000 2.625000
41 1 5.250000 2.625000 2.625000
42 1 10.500000 2.625000 2.625000
43 1 2.625000 5.250000 2.625000
44 1 7.875000 5.250000 2.625000
45 1 13.125000 5.250000 2.625000
46 1 0.000000 7.875000 2.625000
47 1 5.250000 7.875000 2.625000
48 1 10.500000 7.875000 2.625000
49 1 2.625000 10.500000 2.625000
50 1 7.875000 10.500000 2.625000
51 1 13.125000 10.500000 2.625000
52 1 0.000000 13.125000 2.625000
53 1 5.250000 13.125000 2.625000
54 1 10.500000 13.125000 2.625000
55 1 3.937500 1.312500 3.937500
56 1 9.187500 1.312500 3.937500
57 1 14.437500 1.312500 3.937500
58 1 1.312500 3.937500 3.937500
59 1 6.562500 3.937500 3.937500
60 1 11.812500 3.937500 3.937500
61 1 3.937500 6.562500 3.937500
62 1 9.187500 6.562500 3.937500
63 1 14.437500 6.562500 3.937500
64 1 1.312500 9.187500 3.937500
65 1 6.562500 9.187500 3.937500
66 1 11.812500 9.187500 3.937500
67 1 3.937500 11.812500 3.937500
68 1 9.187500 11.812500 3.937500
69 1 14.437500 11.812500 3.937500
70 1 1.312500 14.437500 3.937500
71 1 6.562500 14.437500 3.937500
72 1 11.812500 14.437500 3.937500
73 1 0.000000 0.000000 5.250000
74 1 5.250000 0.000000 5.250000
75 1 10.500000 0.000000 5.250000
76 1 2.625000 2.625000 5.250000
77 1 7.875000 2.625000 5.250000
78 1 13.125000 2.625000 5.250000
79 1 0.000000 5.250000 5.250000
80 1 5.250000 5.250000 5.250000
81 1 10.500000 5.250000 5.250000
82 1 2.625000 7.875000 5.250000
83 1 7.875000 7.875000 5.250000
84 1 13.125000 7.875000 5.250000
85 1 0.000000 10.500000 5.250000
86 1 5.250000 10.500000 5.250000
87 1 10.500000 10.500000 5.250000
88 1 2.625000 13.125000 5.250000
89 1 7.875000 13.125000 5.250000
90 1 13.125000 13.125000 5.250000
91 1 1.312500 1.312500 6.562500
92 1 6.562500 1.312500 6.562500
93 1 11.812500 1.312500 6.562500
94 1 3.937500 3.937500 6.562500
95 1 9.187500 3.937500 6.562500
96 1 14.437500 3.937500 6.562500
97 1 1.312500 6.562500 6.562500
98 1 6.562500 6.562500 6.562500
99 1 11.812500 6.562500 6.562500
100 1 3.937500 9.187500 6.562500
101 1 9.187500 9.187500 6.562500
102 1 14.437500 9.187500 6.562500
103 1 1.312500 11.812500 6.562500
104 1 6.562500 11.812500 6.562500
105 1 11.812500 11.812500 6.562500
106 1 3.937500 14.437500 6.562500
107 1 9.187500 14.437500 6.562500
108 1 14.437500 14.437500 6.562500
109 1 2.625000 0.000000 7.875000
110 1 7.875000 0.000000 7.875000
111 1 13.125000 0.000000 7.875000
112 1 0.000000 2.625000 7.875000
113 1 5.250000 2.625000 7.875000
114 1 10.500000 2.625000 7.875000
115 1 2.625000 5.250000 7.875000
116 1 7.875000 5.250000 7.875000
117 1 13.125000 5.250000 7.875000
118 1 0.000000 7.875000 7.875000
119 1 5.250000 7.875000 7.875000
120 1 10.500000 7.875000 7.875000
121 1 2.625000 10.500000 7.875000
122 1 7.875000 10.500000 7.875000
123 1 13.125000 10.500000 7.875000
124 1 0.000000 13.125000 7.875000
125 1 5.250000 13.125000 7.875000
126 1 10.500000 13.125000 7.875000
127 1 3.937500 1.312500 9.187500
128 1 9.187500 1.312500 9.187500
129 1 14.437500 1.312500 9.187500
130 1 1.312500 3.937500 9.187500
131 1 6.562500 3.937500 9.187500
132 1 11.812500 3.937500 9.187500
133 1 3.937500 6.562500 9.187500
134 1 9.187500 6.562500 9.187500
135 1 14.437500 6.562500 9.187500
136 1 1.312500 9.187500 9.187500
137 1 6.562500 9.187500 9.187500
138 1 11.812500 9.187500 9.187500
139 1 3.937500 11.812500 9.187500
140 1 9.187500 11.812500 9.187500
141 1 14.437500 11.812500 9.187500
142 1 1.312500 14.437500 9.187500
143 1 6.562500 14.437500 9.187500
144 1 11.812500 14.437500 9.187500
145 1 0.000000 0.000000 10.500000
146 1 5.250000 0.000000 10.500000
147 1 10.500000 0.000000 10.500000
148 1 2.625000 2.625000 10.500000
149 1 7.875000 2.625000 10.500000
150 1 13.125000 2.625000 10.500000
151 1 0.000000 5.250000 10.500000
152 1 5.250000 5.250000 10.500000
153 1 10.500000 5.250000 10.500000
154 1 2.625000 7.875000 10.500000
155 1 7.875000 7.875000 10.500000
156 1 13.125000 7.875000 10.500000
157 1 0.000000 10.500000 10.500000
158 1 5.250000 10.500000 10.500000
159 1 10.500000 10.500000 10.500000
160 1 2.625000 13.125000 10.500000
161 1 7.875000 13.125000 10.500000
162 1 13.125000 13.125000 10.500000
163 1 1.312500 1.312500 11.812500
164 1 6.562500 1.312500 11.812500
165 1 11.812500 1.312500 11.812500
166 1 3.937500 3.937500 11.812500
167 1 9.187500 3.937500 11.812500
168 1 14.437500 3.937500 11.812500
169 1 1.312500 6.562500 11.812500
170 1 6.562500 6.562500 11.812500
171 1 11.812500 6.562500 11.812500
172 1 3.937500 9.187500 11.812500
173 1 9.187500 9.187500 11.812500
174 1 14.437500 9.187500 11.812500
175 1 1.312500 11.812500 11.812500
176 1 6.562500 11.812500 11.812500
177 1 11.812500 11.812500 11.812500
178 1 3.937500 14.437500 11.812500
179 1 9.187500 14.437500 11.812500
180 1 14.437500 14.437500 11.812500
181 1 2.625000 0.000000 13.125000
182 1 7.875000 0.000000 13.125000
183 1 13.125000 0.000000 13.125000
184 1 0.000000 2.625000 13.125000
185 1 5.250000 2.625000 13.125000
186 1 10.500000 2.625000 13.125000
187 1 2.625000 5.250000 13.125000
188 1 7.875000 5.250000 13.125000
189 1 13.125000 5.250000 13.125000
190 1 0.000000 7.875000 13.125000
191 1 5.250000 7.875000 13.125000
192 1 10.500000 7.875000 13.125000
193 1 2.625000 10.500000 13.125000
194 1 7.875000 10.500000 13.125000
195 1 13.125000 10.500000 13.125000
196 1 0.000000 13.125000 13.125000
197 1 5.250000 13.125000 13.125000
198 1 10.500000 13.125000 13.125000
199 1 3.937500 1.312500 14.437500
200 1 9.187500 1.312500 14.437500
201 1 14.437500 1.312500 14.437500
202 1 1.312500 3.937500 14.437500
203 1 6.562500 3.937500 14.437500
204 1 11.812500 3.937500 14.437500
205 1 3.937500 6.562500 14.437500
206 1 9.187500 6.562500 14.437500
207 1 14.437500 6.562500 14.437500
208 1 1.312500 9.187500 14.437500
209 1 6.562500 9.187500 14.437500
210 1 11.812500 9.187500 14.437500
211 1 3.937500 11.812500 14.437500
212 1 9.187500 11.812500 14.437500
213 1 14.437500 11.812500 14.437500
214 1 1.312500 14.437500 14.437500
215 1 6.562500 14.437500 14.437500
216 1 11.812500 14.437500 14.437500
