LAMMPS data file via write_data, version 27 Jun 2024, timestep = 1, units = metal

216 atoms
1 atom types

0 16.5 xlo xhi
0 16.5 ylo yhi
0 16.5 zlo zhi

Masses

1 28.02

Atoms # atomic

1 1 0.000000 0.000000 0.000000
2 1 5.500000 0.000000 0.000000
3 1 11.000000 0.000000 0.000000
4 1 2.750000 2.750000 0.000000
5 1 8.250000 2.750000 0.000000
6 1 13.750000 2.750000 0.000000
7 1 0.000000 5.500000 0.000000
8 1 5.500000 5.500000 0.000000
9 1 11.000000 5.500000 0.000000
10 1 2.750000 8.250000 0.000000
11 1 8.250000 8.250000 0.000000
12 1 13.750000 8.250000 0.000000
13 1 0.000000 11.000000 0.000000
14 1 5.500000 11.000000 0.000000
15 1 11.000000 11.000000 0.000000
16 1 2.750000 13.750000 0.000000
17 1 8.250000 13.750000 0.000000
18 1 13.750000 13.750000 0.000000
19 1 1.375000 1.375000 1.375000
20 1 6.875000 1.375000 1.375000
21 1 12.375000 1.375000 1.375000
22 1 4.125000 4.125000 1.375000
23 1 9.625000 4.125000 1.375000
24 1 15.125000 4.125000 1.375000
25 1 1.375000 6.875000 1.375000
26 1 6.875000 6.875000 1.375000
27 1 12.375000 6.875000 1.375000
28 1 4.125000 9.625000 1.375000
29 1 9.625000 9.625000 1.375000
30 1 15.125000 9.625000 1.375000
31 1 1.375000 12.375000 1.375000
32 1 6.875000 12.375000 1.375000
33 1 12.375000 12.375000 1.375000
34 1 4.125000 15.125000 1.375000
35 1 9.625000 15.125000 1.375000
36 1 15.125000 15.125000 1.375000
37 1 2.750000 0.000000 2.750000
38 1 8.250000 0.000000 2.750000
39 1 13.750000 0.000000 2.750000
40 1 0.000000 2.750000 2.750000
41 1 5.500000 2.750000 2.750000
42 1 11.000000 2.750000 2.750000
43 1 2.750000 5.500000 2.750000
44 1 8.250000 5.500000 2.750000
45 1 13.750000 5.500000 2.750000
46 1 0.000000 8.250000 2.750000
47 1 5.500000 8.250000 2.750000
48 1 11.000000 8.250000 2.750000
49 1 2.750000 11.000000 2.750000
50 1 8.250000 11.000000 2.750000
51 1 13.750000 11.000000 2.750000
52 1 0.000000 13.750000 2.750000
53 1 5.500000 13.750000 2.750000
54 1 11.000000 13.750000 2.750000
55 1 4.125000 1.375000 4.125000
56 1 9.625000 1.375000 4.125000
57 1 15.125000 1.375000 4.125000
58 1 1.375000 4.125000 4.125000
59 1 6.875000 4.125000 4.125000
60 1 12.375000 4.125000 4.125000
61 1 4.125000 6.875000 4.125000
62 1 9.625000 6.875000 4.125000
63 1 15.125000 6.875000 4.125000
64 1 1.375000 9.625000 4.125000
65 1 6.875000 9.625000 4.125000
66 1 12.375000 9.625000 4.125000
67 1 4.125000 12.375000 4.125000
68 1 9.625000 12.375000 4.125000
69 1 15.125000 12.375000 4.125000
70 1 1.375000 15.125000 4.125000
71 1 6.875000 15.125000 4.125000
72 1 12.375000 15.125000 4.125000
73 1 0.000000 0.000000 5.500000
74 1 5.500000 0.000000 5.500000
75 1 11.000000 0.000000 5.500000
76 1 2.750000 2.750000 5.500000
77 1 8.250000 2.750000 5.500000
78 1 13.750000 2.750000 5.500000
79 1 0.000000 5.500000 5.500000
80 1 5.500000 5.500000 5.500000
81 1 11.000000 5.500000 5.500000
82 1 2.750000 8.250000 5.500000
83 1 8.250000 8.250000 5.500000
84 1 13.750000 8.250000 5.500000
85 1 0.000000 11.000000 5.500000
86 1 5.500000 11.000000 5.500000
87 1 11.000000 11.000000 5.500000
88 1 2.750000 13.750000 5.500000
89 1 8.250000 13.750000 5.500000
90 1 13.750000 13.750000 5.500000
91 1 1.375000 1.375000 6.875000
92 1 6.875000 1.375000 6.875000
93 1 12.375000 1.375000 6.875000
94 1 4.125000 4.125000 6.875000
95 1 9.625000 4.125000 6.875000
96 1 15.125000 4.125000 6.875000
97 1 1.375000 6.875000 6.875000
98 1 6.875000 6.875000 6.875000
99 1 12.375000 6.875000 6.875000
100 1 4.125000 9.625000 6.875000
101 1 9.625000 9.625000 6.875000
102 1 15.125000 9.625000 6.875000
103 1 1.375000 12.375000 6.875000
104 1 6.875000 12.375000 6.875000
105 1 12.375000 12.375000 6.875000
106 1 4.125000 15.125000 6.875000
107 1 9.625000 15.125000 6.875000
108 1 15.125000 15.125000 6.875000
109 1 2.750000 0.000000 8.250000
110 1 8.250000 0.000000 8.250000
111 1 13.750000 0.000000 8.250000
112 1 0.000000 2.750000 8.250000
113 1 5.500000 2.750000 8.250000
114 1 11.000000 2.750000 8.250000
115 1 2.750000 5.500000 8.250000
116 1 8.250000 5.500000 8.250000
117 1 13.750000 5.500000 8.250000
118 1 0.000000 8.250000 8.250000
119 1 5.500000 8.250000 8.250000
120 1 11.000000 8.250000 8.250000
121 1 2.750000 11.000000 8.250000
122 1 8.250000 11.000000 8.250000
123 1 13.750000 11.000000 8.250000
124 1 0.000000 13.750000 8.250000
125 1 5.500000 13.750000 8.250000
126 1 11.000000 13.750000 8.250000
127 1 4.125000 1.375000 9.625000
128 1 9.625000 1.375000 9.625000
129 1 15.125000 1.375000 9.625000
130 1 1.375000 4.125000 9.625000
131 1 6.875000 4.125000 9.625000
132 1 12.375000 4.125000 9.625000
133 1 4.125000 6.875000 9.625000
134 1 9.625000 6.875000 9.625000
135 1 15.125000 6.875000 9.625000
136 1 1.375000 9.625000 9.625000
137 1 6.875000 9.625000 9.625000
138 1 12.375000 9.625000 9.625000
139 1 4.125000 12.375000 9.625000
140 1 9.625000 12.375000 9.625000
141 1 15.125000 12.375000 9.625000
142 1 1.375000 15.125000 9.625000
143 1 6.875000 15.125000 9.625000
144 1 12.375000 15.125000 9.625000
145 1 0.000000 0.000000 11.000000
146 1 5.500000 0.000000 11.000000
147 1 11.000000 0.000000 11.000000
148 1 2.750000 2.750000 11.000000
149 1 8.250000 2.750000 11.000000
150 1 13.750000 2.750000 11.000000
151 1 0.000000 5.500000 11.000000
152 1 5.500000 5.500000 11.000000
153 1 11.000000 5.500000 11.000000
154 1 2.750000 8.250000 11.000000
155 1 8.250000 8.250000 11.000000
156 1 13.750000 8.250000 11.000000
157 1 0.000000 11.000000 11.000000
158 1 5.500000 11.000000 11.000000
159 1 11.000000 11.000000 11.000000
160 1 2.750000 13.750000 11.000000
161 1 8.250000 13.750000 11.000000
162 1 13.750000 13.750000 11.000000
163 1 1.375000 1.375000 12.375000
164 1 6.875000 1.375000 12.375000
165 1 12.375000 1.375000 12.375000
166 1 4.125000 4.125000 12.375000
167 1 9.625000 4.125000 12.375000
168 1 15.125000 4.125000 12.375000
169 1 1.375000 6.875000 12.375000
170 1 6.875000 6.875000 12.375000
171 1 12.375000 6.875000 12.375000
172 1 4.125000 9.625000 12.375000
173 1 9.625000 9.625000 12.375000
174 1 15.125000 9.625000 12.375000
175 1 1.375000 12.375000 12.375000
176 1 6.875000 12.375000 12.375000
177 1 12.375000 12.375000 12.375000
178 1 4.125000 15.125000 12.375000
179 1 9.625000 15.125000 12.375000
180 1 15.125000 15.125000 12.375000
181 1 2.750000 0.000000 13.750000
182 1 8.250000 0.000000 13.750000
183 1 13.750000 0.000000 13.750000
184 1 0.000000 2.750000 13.750000
185 1 5.500000 2.750000 13.750000
186 1 11.000000 2.750000 13.750000
187 1 2.750000 5.500000 13.750000
188 1 8.250000 5.500000 13.750000
189 1 13.750000 5.500000 13.750000
190 1 0.000000 8.250000 13.750000
191 1 5.500000 8.250000 13.750000
192 1 11.000000 8.250000 13.750000
193 1 2.750000 11.000000 13.750000
194 1 8.250000 11.000000 13.750000
195 1 13.750000 11.000000 13.750000
196 1 0.000000 13.750000 13.750000
197 1 5.500000 13.750000 13.750000
198 1 11.000000 13.750000 13.750000
199 1 4.125000 1.375000 15.125000
200 1 9.625000 1.375000 15.125000
201 1 15.125000 1.375000 15.125000
202 1 1.375000 4.125000 15.125000
203 1 6.875000 4.125000 15.125000
204 1 12.375000 4.125000 15.125000
205 1 4.125000 6.875000 15.125000
206 1 9.625000 6.875000 15.125000
207 1 15.125000 6.875000 15.125000
208 1 1.375000 9.625000 15.125000
209 1 6.875000 9.625000 15.125000
210 1 12.375000 9.625000 15.125000
211 1 4.125000 12.375000 15.125000
212 1 9.625000 12.375000 15.125000
213 1 15.125000 12.375000 15.125000
214 1 1.375000 15.125000 15.125000
215 1 6.875000 15.125000 15.125000
216 1 12.375000 15.125000 15.125000
