LAMMPS data file via write_data, version 27 Jun 2024, timestep = 1, units = metal

216 atoms
1 atom types

0 15.899999999999999 xlo xhi
0 15.899999999999999 ylo yhi
0 15.899999999999999 zlo zhi

Masses

1 28.02

Atoms # atomic

1 1 0.000000 0.000000 0.000000
2 1 5.300000 0.000000 0.000000
3 1 10.600000 0.000000 0.000000
4 1 2.650000 2.650000 0.000000
5 1 7.950000 2.650000 0.000000
6 1 13.250000 2.650000 0.000000
7 1 0.000000 5.300000 0.000000
8 1 5.300000 5.300000 0.000000
9 1 10.600000 5.300000 0.000000
10 1 2.650000 7.950000 0.000000
11 1 7.950000 7.950000 0.000000
12 1 13.250000 7.950000 0.000000
13 1 0.000000 10.600000 0.000000
14 1 5.300000 10.600000 0.000000
15 1 10.600000 10.600000 0.000000
16 1 2.650000 13.250000 0.000000
17 1 7.950000 13.250000 0.000000
18 1 13.250000 13.250000 0.000000
19 1 1.325000 1.325000 1.325000
20 1 6.625000 1.325000 1.325000
21 1 11.925000 1.325000 1.325000
22 1 3.975000 3.975000 1.325000
23 1 9.275000 3.975000 1.325000
24 1 14.575000 3.975000 1.325000
25 1 1.325000 6.625000 1.325000
26 1 6.625000 6.625000 1.325000
27 1 11.925000 6.625000 1.325000
28 1 3.975000 9.275000 1.325000
29 1 9.275000 9.275000 1.325000
30 1 14.575000 9.275000 1.325000
31 1 1.325000 11.925000 1.325000
32 1 6.625000 11.925000 1.325000
33 1 11.925000 11.925000 1.325000
34 1 3.975000 14.575000 1.325000
35 1 9.275000 14.575000 1.325000
36 1 14.575000 14.575000 1.325000
37 1 2.650000 0.000000 2.650000
38 1 7.950000 0.000000 2.650000
39 1 13.250000 0.000000 2.650000
40 1 0.000000 2.650000 2.650000
41 1 5.300000 2.650000 2.650000
42 1 10.600000 2.650000 2.650000
43 1 2.650000 5.300000 2.650000
44 1 7.950000 5.300000 2.650000
45 1 13.250000 5.300000 2.650000
46 1 0.000000 7.950000 2.650000
47 1 5.300000 7.950000 2.650000
48 1 10.600000 7.950000 2.650000
49 1 2.650000 10.600000 2.650000
50 1 7.950000 10.600000 2.650000
51 1 13.250000 10.600000 2.650000
52 1 0.000000 13.250000 2.650000
53 1 5.300000 13.250000 2.650000
54 1 10.600000 13.250000 2.650000
55 1 3.975000 1.325000 3.975000
56 1 9.275000 1.325000 3.975000
57 1 14.575000 1.325000 3.975000
58 1 1.325000 3.975000 3.975000
59 1 6.625000 3.975000 3.975000
60 1 11.925000 3.975000 3.975000
61 1 3.975000 6.625000 3.975000
62 1 9.275000 6.625000 3.975000
63 1 14.575000 6.625000 3.975000
64 1 1.325000 9.275000 3.975000
65 1 6.625000 9.275000 3.975000
66 1 11.925000 9.275000 3.975000
67 1 3.975000 11.925000 3.975000
68 1 9.275000 11.925000 3.975000
69 1 14.575000 11.925000 3.975000
70 1 1.325000 14.575000 3.975000
71 1 6.625000 14.575000 3.975000
72 1 11.925000 14.575000 3.975000
73 1 0.000000 0.000000 5.300000
74 1 5.300000 0.000000 5.300000
75 1 10.600000 0.000000 5.300000
76 1 2.650000 2.650000 5.300000
77 1 7.950000 2.650000 5.300000
78 1 13.250000 2.650000 5.300000
79 1 0.000000 5.300000 5.300000
80 1 5.300000 5.300000 5.300000
81 1 10.600000 5.300000 5.300000
82 1 2.650000 7.950000 5.300000
83 1 7.950000 7.950000 5.300000
84 1 13.250000 7.950000 5.300000
85 1 0.000000 10.600000 5.300000
86 1 5.300000 10.600000 5.300000
87 1 10.600000 10.600000 5.300000
88 1 2.650000 13.250000 5.300000
89 1 7.950000 13.250000 5.300000
90 1 13.250000 13.250000 5.300000
91 1 1.325000 1.325000 6.625000
92 1 6.625000 1.325000 6.625000
93 1 11.925000 1.325000 6.625000
94 1 3.975000 3.975000 6.625000
95 1 9.275000 3.975000 6.625000
96 1 14.575000 3.975000 6.625000
97 1 1.325000 6.625000 6.625000
98 1 6.625000 6.625000 6.625000
99 1 11.925000 6.625000 6.625000
100 1 3.975000 9.275000 6.625000
101 1 9.275000 9.275000 6.625000
102 1 14.575000 9.275000 6.625000
103 1 1.325000 11.925000 6.625000
104 1 6.625000 11.925000 6.625000
105 1 11.925000 11.925000 6.625000
106 1 3.975000 14.575000 6.625000
107 1 9.275000 14.575000 6.625000
108 1 14.575000 14.575000 6.625000
109 1 2.650000 0.000000 7.950000
110 1 7.950000 0.000000 7.950000
111 1 13.250000 0.000000 7.950000
112 1 0.000000 2.650000 7.950000
113 1 5.300000 2.650000 7.950000
114 1 10.600000 2.650000 7.950000
115 1 2.650000 5.300000 7.950000
116 1 7.950000 5.300000 7.950000
117 1 13.250000 5.300000 7.950000
118 1 0.000000 7.950000 7.950000
119 1 5.300000 7.950000 7.950000
120 1 10.600000 7.950000 7.950000
121 1 2.650000 10.600000 7.950000
122 1 7.950000 10.600000 7.950000
123 1 13.250000 10.600000 7.950000
124 1 0.000000 13.250000 7.950000
125 1 5.300000 13.250000 7.950000
126 1 10.600000 13.250000 7.950000
127 1 3.975000 1.325000 9.275000
128 1 9.275000 1.325000 9.275000
129 1 14.575000 1.325000 9.275000
130 1 1.325000 3.975000 9.275000
131 1 6.625000 3.975000 9.275000
132 1 11.925000 3.975000 9.275000
133 1 3.975000 6.625000 9.275000
134 1 9.275000 6.625000 9.275000
135 1 14.575000 6.625000 9.275000
136 1 1.325000 9.275000 9.275000
137 1 6.625000 9.275000 9.275000
138 1 11.925000 9.275000 9.275000
139 1 3.975000 11.925000 9.275000
140 1 9.275000 11.925000 9.275000
141 1 14.575000 11.925000 9.275000
142 1 1.325000 14.575000 9.275000
143 1 6.625000 14.575000 9.275000
144 1 11.925000 14.575000 9.275000
145 1 0.000000 0.000000 10.600000
146 1 5.300000 0.000000 10.600000
147 1 10.600000 0.000000 10.600000
148 1 2.650000 2.650000 10.600000
149 1 7.950000 2.650000 10.600000
150 1 13.250000 2.650000 10.600000
151 1 0.000000 5.300000 10.600000
152 1 5.300000 5.300000 10.600000
153 1 10.600000 5.300000 10.600000
154 1 2.650000 7.950000 10.600000
155 1 7.950000 7.950000 10.600000
156 1 13.250000 7.950000 10.600000
157 1 0.000000 10.600000 10.600000
158 1 5.300000 10.600000 10.600000
159 1 10.600000 10.600000 10.600000
160 1 2.650000 13.250000 10.600000
161 1 7.950000 13.250000 10.600000
162 1 13.250000 13.250000 10.600000
163 1 1.325000 1.325000 11.925000
164 1 6.625000 1.325000 11.925000
165 1 11.925000 1.325000 11.925000
166 1 3.975000 3.975000 11.925000
167 1 9.275000 3.975000 11.925000
168 1 14.575000 3.975000 11.925000
169 1 1.325000 6.625000 11.925000
170 1 6.625000 6.625000 11.925000
171 1 11.925000 6.625000 11.925000
172 1 3.975000 9.275000 11.925000
173 1 9.275000 9.275000 11.925000
174 1 14.575000 9.275000 11.925000
175 1 1.325000 11.925000 11.925000
176 1 6.625000 11.925000 11.925000
177 1 11.925000 11.925000 11.925000
178 1 3.975000 14.575000 11.925000
179 1 9.275000 14.575000 11.925000
180 1 14.575000 14.575000 11.925000
181 1 2.650000 0.000000 13.250000
182 1 7.950000 0.000000 13.250000
183 1 13.250000 0.000000 13.250000
184 1 0.000000 2.650000 13.250000
185 1 5.300000 2.650000 13.250000
186 1 10.600000 2.650000 13.250000
187 1 2.650000 5.300000 13.250000
188 1 7.950000 5.300000 13.250000
189 1 13.250000 5.300000 13.250000
190 1 0.000000 7.950000 13.250000
191 1 5.300000 7.950000 13.250000
192 1 10.600000 7.950000 13.250000
193 1 2.650000 10.600000 13.250000
194 1 7.950000 10.600000 13.250000
195 1 13.250000 10.600000 13.250000
196 1 0.000000 13.250000 13.250000
197 1 5.300000 13.250000 13.250000
198 1 10.600000 13.250000 13.250000
199 1 3.975000 1.325000 14.575000
200 1 9.275000 1.325000 14.575000
201 1 14.575000 1.325000 14.575000
202 1 1.325000 3.975000 14.575000
203 1 6.625000 3.975000 14.575000
204 1 11.925000 3.975000 14.575000
205 1 3.975000 6.625000 14.575000
206 1 9.275000 6.625000 14.575000
207 1 14.575000 6.625000 14.575000
208 1 1.325000 9.275000 14.575000
209 1 6.625000 9.275000 14.575000
210 1 11.925000 9.275000 14.575000
211 1 3.975000 11.925000 14.575000
212 1 9.275000 11.925000 14.575000
213 1 14.575000 11.925000 14.575000
214 1 1.325000 14.575000 14.575000
215 1 6.625000 14.575000 14.575000
216 1 11.925000 14.575000 14.575000
