LAMMPS data file via write_data, version 27 Jun 2024, timestep = 1, units = metal

216 atoms
1 atom types

0 16.950000000000003 xlo xhi
0 16.950000000000003 ylo yhi
0 16.950000000000003 zlo zhi

Masses

1 28.02

Atoms # atomic

1 1 0.000000 0.000000 0.000000
2 1 5.650000 0.000000 0.000000
3 1 11.300000 0.000000 0.000000
4 1 2.825000 2.825000 0.000000
5 1 8.475000 2.825000 0.000000
6 1 14.125000 2.825000 0.000000
7 1 0.000000 5.650000 0.000000
8 1 5.650000 5.650000 0.000000
9 1 11.300000 5.650000 0.000000
10 1 2.825000 8.475000 0.000000
11 1 8.475000 8.475000 0.000000
12 1 14.125000 8.475000 0.000000
13 1 0.000000 11.300000 0.000000
14 1 5.650000 11.300000 0.000000
15 1 11.300000 11.300000 0.000000
16 1 2.825000 14.125000 0.000000
17 1 8.475000 14.125000 0.000000
18 1 14.125000 14.125000 0.000000
19 1 1.412500 1.412500 1.412500
20 1 7.062500 1.412500 1.412500
21 1 12.712500 1.412500 1.412500
22 1 4.237500 4.237500 1.412500
23 1 9.887500 4.237500 1.412500
24 1 15.537500 4.237500 1.412500
25 1 1.412500 7.062500 1.412500
26 1 7.062500 7.062500 1.412500
27 1 12.712500 7.062500 1.412500
28 1 4.237500 9.887500 1.412500
29 1 9.887500 9.887500 1.412500
30 1 15.537500 9.887500 1.412500
31 1 1.412500 12.712500 1.412500
32 1 7.062500 12.712500 1.412500
33 1 12.712500 12.712500 1.412500
34 1 4.237500 15.537500 1.412500
35 1 9.887500 15.537500 1.412500
36 1 15.537500 15.537500 1.412500
37 1 2.825000 0.000000 2.825000
38 1 8.475000 0.000000 2.825000
39 1 14.125000 0.000000 2.825000
40 1 0.000000 2.825000 2.825000
41 1 5.650000 2.825000 2.825000
42 1 11.300000 2.825000 2.825000
43 1 2.825000 5.650000 2.825000
44 1 8.475000 5.650000 2.825000
45 1 14.125000 5.650000 2.825000
46 1 0.000000 8.475000 2.825000
47 1 5.650000 8.475000 2.825000
48 1 11.300000 8.475000 2.825000
49 1 2.825000 11.300000 2.825000
50 1 8.475000 11.300000 2.825000
51 1 14.125000 11.300000 2.825000
52 1 0.000000 14.125000 2.825000
53 1 5.650000 14.125000 2.825000
54 1 11.300000 14.125000 2.825000
55 1 4.237500 1.412500 4.237500
56 1 9.887500 1.412500 4.237500
57 1 15.537500 1.412500 4.237500
58 1 1.412500 4.237500 4.237500
59 1 7.062500 4.237500 4.237500
60 1 12.712500 4.237500 4.237500
61 1 4.237500 7.062500 4.237500
62 1 9.887500 7.062500 4.237500
63 1 15.537500 7.062500 4.237500
64 1 1.412500 9.887500 4.237500
65 1 7.062500 9.887500 4.237500
66 1 12.712500 9.887500 4.237500
67 1 4.237500 12.712500 4.237500
68 1 9.887500 12.712500 4.237500
69 1 15.537500 12.712500 4.237500
70 1 1.412500 15.537500 4.237500
71 1 7.062500 15.537500 4.237500
72 1 12.712500 15.537500 4.237500
73 1 0.000000 0.000000 5.650000
74 1 5.650000 0.000000 5.650000
75 1 11.300000 0.000000 5.650000
76 1 2.825000 2.825000 5.650000
77 1 8.475000 2.825000 5.650000
78 1 14.125000 2.825000 5.650000
79 1 0.000000 5.650000 5.650000
80 1 5.650000 5.650000 5.650000
81 1 11.300000 5.650000 5.650000
82 1 2.825000 8.475000 5.650000
83 1 8.475000 8.475000 5.650000
84 1 14.125000 8.475000 5.650000
85 1 0.000000 11.300000 5.650000
86 1 5.650000 11.300000 5.650000
87 1 11.300000 11.300000 5.650000
88 1 2.825000 14.125000 5.650000
89 1 8.475000 14.125000 5.650000
90 1 14.125000 14.125000 5.650000
91 1 1.412500 1.412500 7.062500
92 1 7.062500 1.412500 7.062500
93 1 12.712500 1.412500 7.062500
94 1 4.237500 4.237500 7.062500
95 1 9.887500 4.237500 7.062500
96 1 15.537500 4.237500 7.062500
97 1 1.412500 7.062500 7.062500
98 1 7.062500 7.062500 7.062500
99 1 12.712500 7.062500 7.062500
100 1 4.237500 9.887500 7.062500
101 1 9.887500 9.887500 7.062500
102 1 15.537500 9.887500 7.062500
103 1 1.412500 12.712500 7.062500
104 1 7.062500 12.712500 7.062500
105 1 12.712500 12.712500 7.062500
106 1 4.237500 15.537500 7.062500
107 1 9.887500 15.537500 7.062500
108 1 15.537500 15.537500 7.062500
109 1 2.825000 0.000000 8.475000
110 1 8.475000 0.000000 8.475000
111 1 14.125000 0.000000 8.475000
112 1 0.000000 2.825000 8.475000
113 1 5.650000 2.825000 8.475000
114 1 11.300000 2.825000 8.475000
115 1 2.825000 5.650000 8.475000
116 1 8.475000 5.650000 8.475000
117 1 14.125000 5.650000 8.475000
118 1 0.000000 8.475000 8.475000
119 1 5.650000 8.475000 8.475000
120 1 11.300000 8.475000 8.475000
121 1 2.825000 11.300000 8.475000
122 1 8.475000 11.300000 8.475000
123 1 14.125000 11.300000 8.475000
124 1 0.000000 14.125000 8.475000
125 1 5.650000 14.125000 8.475000
126 1 11.300000 14.125000 8.475000
127 1 4.237500 1.412500 9.887500
128 1 9.887500 1.412500 9.887500
129 1 15.537500 1.412500 9.887500
130 1 1.412500 4.237500 9.887500
131 1 7.062500 4.237500 9.887500
132 1 12.712500 4.237500 9.887500
133 1 4.237500 7.062500 9.887500
134 1 9.887500 7.062500 9.887500
135 1 15.537500 7.062500 9.887500
136 1 1.412500 9.887500 9.887500
137 1 7.062500 9.887500 9.887500
138 1 12.712500 9.887500 9.887500
139 1 4.237500 12.712500 9.887500
140 1 9.887500 12.712500 9.887500
141 1 15.537500 12.712500 9.887500
142 1 1.412500 15.537500 9.887500
143 1 7.062500 15.537500 9.887500
144 1 12.712500 15.537500 9.887500
145 1 0.000000 0.000000 11.300000
146 1 5.650000 0.000000 11.300000
147 1 11.300000 0.000000 11.300000
148 1 2.825000 2.825000 11.300000
149 1 8.475000 2.825000 11.300000
150 1 14.125000 2.825000 11.300000
151 1 0.000000 5.650000 11.300000
152 1 5.650000 5.650000 11.300000
153 1 11.300000 5.650000 11.300000
154 1 2.825000 8.475000 11.300000
155 1 8.475000 8.475000 11.300000
156 1 14.125000 8.475000 11.300000
157 1 0.000000 11.300000 11.300000
158 1 5.650000 11.300000 11.300000
159 1 11.300000 11.300000 11.300000
160 1 2.825000 14.125000 11.300000
161 1 8.475000 14.125000 11.300000
162 1 14.125000 14.125000 11.300000
163 1 1.412500 1.412500 12.712500
164 1 7.062500 1.412500 12.712500
165 1 12.712500 1.412500 12.712500
166 1 4.237500 4.237500 12.712500
167 1 9.887500 4.237500 12.712500
168 1 15.537500 4.237500 12.712500
169 1 1.412500 7.062500 12.712500
170 1 7.062500 7.062500 12.712500
171 1 12.712500 7.062500 12.712500
172 1 4.237500 9.887500 12.712500
173 1 9.887500 9.887500 12.712500
174 1 15.537500 9.887500 12.712500
175 1 1.412500 12.712500 12.712500
176 1 7.062500 12.712500 12.712500
177 1 12.712500 12.712500 12.712500
178 1 4.237500 15.537500 12.712500
179 1 9.887500 15.537500 12.712500
180 1 15.537500 15.537500 12.712500
181 1 2.825000 0.000000 14.125000
182 1 8.475000 0.000000 14.125000
183 1 14.125000 0.000000 14.125000
184 1 0.000000 2.825000 14.125000
185 1 5.650000 2.825000 14.125000
186 1 11.300000 2.825000 14.125000
187 1 2.825000 5.650000 14.125000
188 1 8.475000 5.650000 14.125000
189 1 14.125000 5.650000 14.125000
190 1 0.000000 8.475000 14.125000
191 1 5.650000 8.475000 14.125000
192 1 11.300000 8.475000 14.125000
193 1 2.825000 11.300000 14.125000
194 1 8.475000 11.300000 14.125000
195 1 14.125000 11.300000 14.125000
196 1 0.000000 14.125000 14.125000
197 1 5.650000 14.125000 14.125000
198 1 11.300000 14.125000 14.125000
199 1 4.237500 1.412500 15.537500
200 1 9.887500 1.412500 15.537500
201 1 15.537500 1.412500 15.537500
202 1 1.412500 4.237500 15.537500
203 1 7.062500 4.237500 15.537500
204 1 12.712500 4.237500 15.537500
205 1 4.237500 7.062500 15.537500
206 1 9.887500 7.062500 15.537500
207 1 15.537500 7.062500 15.537500
208 1 1.412500 9.887500 15.537500
209 1 7.062500 9.887500 15.537500
210 1 12.712500 9.887500 15.537500
211 1 4.237500 12.712500 15.537500
212 1 9.887500 12.712500 15.537500
213 1 15.537500 12.712500 15.537500
214 1 1.412500 15.537500 15.537500
215 1 7.062500 15.537500 15.537500
216 1 12.712500 15.537500 15.537500
