LAMMPS data file via write_data, version 27 Jun 2024, timestep = 1, units = metal

216 atoms
1 atom types

0 16.799999999999997 xlo xhi
0 16.799999999999997 ylo yhi
0 16.799999999999997 zlo zhi

Masses

1 28.02

Atoms # atomic

1 1 0.000000 0.000000 0.000000
2 1 5.600000 0.000000 0.000000
3 1 11.200000 0.000000 0.000000
4 1 2.800000 2.800000 0.000000
5 1 8.400000 2.800000 0.000000
6 1 14.000000 2.800000 0.000000
7 1 0.000000 5.600000 0.000000
8 1 5.600000 5.600000 0.000000
9 1 11.200000 5.600000 0.000000
10 1 2.800000 8.400000 0.000000
11 1 8.400000 8.400000 0.000000
12 1 14.000000 8.400000 0.000000
13 1 0.000000 11.200000 0.000000
14 1 5.600000 11.200000 0.000000
15 1 11.200000 11.200000 0.000000
16 1 2.800000 14.000000 0.000000
17 1 8.400000 14.000000 0.000000
18 1 14.000000 14.000000 0.000000
19 1 1.400000 1.400000 1.400000
20 1 7.000000 1.400000 1.400000
21 1 12.600000 1.400000 1.400000
22 1 4.200000 4.200000 1.400000
23 1 9.800000 4.200000 1.400000
24 1 15.400000 4.200000 1.400000
25 1 1.400000 7.000000 1.400000
26 1 7.000000 7.000000 1.400000
27 1 12.600000 7.000000 1.400000
28 1 4.200000 9.800000 1.400000
29 1 9.800000 9.800000 1.400000
30 1 15.400000 9.800000 1.400000
31 1 1.400000 12.600000 1.400000
32 1 7.000000 12.600000 1.400000
33 1 12.600000 12.600000 1.400000
34 1 4.200000 15.400000 1.400000
35 1 9.800000 15.400000 1.400000
36 1 15.400000 15.400000 1.400000
37 1 2.800000 0.000000 2.800000
38 1 8.400000 0.000000 2.800000
39 1 14.000000 0.000000 2.800000
40 1 0.000000 2.800000 2.800000
41 1 5.600000 2.800000 2.800000
42 1 11.200000 2.800000 2.800000
43 1 2.800000 5.600000 2.800000
44 1 8.400000 5.600000 2.800000
45 1 14.000000 5.600000 2.800000
46 1 0.000000 8.400000 2.800000
47 1 5.600000 8.400000 2.800000
48 1 11.200000 8.400000 2.800000
49 1 2.800000 11.200000 2.800000
50 1 8.400000 11.200000 2.800000
51 1 14.000000 11.200000 2.800000
52 1 0.000000 14.000000 2.800000
53 1 5.600000 14.000000 2.800000
54 1 11.200000 14.000000 2.800000
55 1 4.200000 1.400000 4.200000
56 1 9.800000 1.400000 4.200000
57 1 15.400000 1.400000 4.200000
58 1 1.400000 4.200000 4.200000
59 1 7.000000 4.200000 4.200000
60 1 12.600000 4.200000 4.200000
61 1 4.200000 7.000000 4.200000
62 1 9.800000 7.000000 4.200000
63 1 15.400000 7.000000 4.200000
64 1 1.400000 9.800000 4.200000
65 1 7.000000 9.800000 4.200000
66 1 12.600000 9.800000 4.200000
67 1 4.200000 12.600000 4.200000
68 1 9.800000 12.600000 4.200000
69 1 15.400000 12.600000 4.200000
70 1 1.400000 15.400000 4.200000
71 1 7.000000 15.400000 4.200000
72 1 12.600000 15.400000 4.200000
73 1 0.000000 0.000000 5.600000
74 1 5.600000 0.000000 5.600000
75 1 11.200000 0.000000 5.600000
76 1 2.800000 2.800000 5.600000
77 1 8.400000 2.800000 5.600000
78 1 14.000000 2.800000 5.600000
79 1 0.000000 5.600000 5.600000
80 1 5.600000 5.600000 5.600000
81 1 11.200000 5.600000 5.600000
82 1 2.800000 8.400000 5.600000
83 1 8.400000 8.400000 5.600000
84 1 14.000000 8.400000 5.600000
85 1 0.000000 11.200000 5.600000
86 1 5.600000 11.200000 5.600000
87 1 11.200000 11.200000 5.600000
88 1 2.800000 14.000000 5.600000
89 1 8.400000 14.000000 5.600000
90 1 14.000000 14.000000 5.600000
91 1 1.400000 1.400000 7.000000
92 1 7.000000 1.400000 7.000000
93 1 12.600000 1.400000 7.000000
94 1 4.200000 4.200000 7.000000
95 1 9.800000 4.200000 7.000000
96 1 15.400000 4.200000 7.000000
97 1 1.400000 7.000000 7.000000
98 1 7.000000 7.000000 7.000000
99 1 12.600000 7.000000 7.000000
100 1 4.200000 9.800000 7.000000
101 1 9.800000 9.800000 7.000000
102 1 15.400000 9.800000 7.000000
103 1 1.400000 12.600000 7.000000
104 1 7.000000 12.600000 7.000000
105 1 12.600000 12.600000 7.000000
106 1 4.200000 15.400000 7.000000
107 1 9.800000 15.400000 7.000000
108 1 15.400000 15.400000 7.000000
109 1 2.800000 0.000000 8.400000
110 1 8.400000 0.000000 8.400000
111 1 14.000000 0.000000 8.400000
112 1 0.000000 2.800000 8.400000
113 1 5.600000 2.800000 8.400000
114 1 11.200000 2.800000 8.400000
115 1 2.800000 5.600000 8.400000
116 1 8.400000 5.600000 8.400000
117 1 14.000000 5.600000 8.400000
118 1 0.000000 8.400000 8.400000
119 1 5.600000 8.400000 8.400000
120 1 11.200000 8.400000 8.400000
121 1 2.800000 11.200000 8.400000
122 1 8.400000 11.200000 8.400000
123 1 14.000000 11.200000 8.400000
124 1 0.000000 14.000000 8.400000
125 1 5.600000 14.000000 8.400000
126 1 11.200000 14.000000 8.400000
127 1 4.200000 1.400000 9.800000
128 1 9.800000 1.400000 9.800000
129 1 15.400000 1.400000 9.800000
130 1 1.400000 4.200000 9.800000
131 1 7.000000 4.200000 9.800000
132 1 12.600000 4.200000 9.800000
133 1 4.200000 7.000000 9.800000
134 1 9.800000 7.000000 9.800000
135 1 15.400000 7.000000 9.800000
136 1 1.400000 9.800000 9.800000
137 1 7.000000 9.800000 9.800000
138 1 12.600000 9.800000 9.800000
139 1 4.200000 12.600000 9.800000
140 1 9.800000 12.600000 9.800000
141 1 15.400000 12.600000 9.800000
142 1 1.400000 15.400000 9.800000
143 1 7.000000 15.400000 9.800000
144 1 12.600000 15.400000 9.800000
145 1 0.000000 0.000000 11.200000
146 1 5.600000 0.000000 11.200000
147 1 11.200000 0.000000 11.200000
148 1 2.800000 2.800000 11.200000
149 1 8.400000 2.800000 11.200000
150 1 14.000000 2.800000 11.200000
151 1 0.000000 5.600000 11.200000
152 1 5.600000 5.600000 11.200000
153 1 11.200000 5.600000 11.200000
154 1 2.800000 8.400000 11.200000
155 1 8.400000 8.400000 11.200000
156 1 14.000000 8.400000 11.200000
157 1 0.000000 11.200000 11.200000
158 1 5.600000 11.200000 11.200000
159 1 11.200000 11.200000 11.200000
160 1 2.800000 14.000000 11.200000
161 1 8.400000 14.000000 11.200000
162 1 14.000000 14.000000 11.200000
163 1 1.400000 1.400000 12.600000
164 1 7.000000 1.400000 12.600000
165 1 12.600000 1.400000 12.600000
166 1 4.200000 4.200000 12.600000
167 1 9.800000 4.200000 12.600000
168 1 15.400000 4.200000 12.600000
169 1 1.400000 7.000000 12.600000
170 1 7.000000 7.000000 12.600000
171 1 12.600000 7.000000 12.600000
172 1 4.200000 9.800000 12.600000
173 1 9.800000 9.800000 12.600000
174 1 15.400000 9.800000 12.600000
175 1 1.400000 12.600000 12.600000
176 1 7.000000 12.600000 12.600000
177 1 12.600000 12.600000 12.600000
178 1 4.200000 15.400000 12.600000
179 1 9.800000 15.400000 12.600000
180 1 15.400000 15.400000 12.600000
181 1 2.800000 0.000000 14.000000
182 1 8.400000 0.000000 14.000000
183 1 14.000000 0.000000 14.000000
184 1 0.000000 2.800000 14.000000
185 1 5.600000 2.800000 14.000000
186 1 11.200000 2.800000 14.000000
187 1 2.800000 5.600000 14.000000
188 1 8.400000 5.600000 14.000000
189 1 14.000000 5.600000 14.000000
190 1 0.000000 8.400000 14.000000
191 1 5.600000 8.400000 14.000000
192 1 11.200000 8.400000 14.000000
193 1 2.800000 11.200000 14.000000
194 1 8.400000 11.200000 14.000000
195 1 14.000000 11.200000 14.000000
196 1 0.000000 14.000000 14.000000
197 1 5.600000 14.000000 14.000000
198 1 11.200000 14.000000 14.000000
199 1 4.200000 1.400000 15.400000
200 1 9.800000 1.400000 15.400000
201 1 15.400000 1.400000 15.400000
202 1 1.400000 4.200000 15.400000
203 1 7.000000 4.200000 15.400000
204 1 12.600000 4.200000 15.400000
205 1 4.200000 7.000000 15.400000
206 1 9.800000 7.000000 15.400000
207 1 15.400000 7.000000 15.400000
208 1 1.400000 9.800000 15.400000
209 1 7.000000 9.800000 15.400000
210 1 12.600000 9.800000 15.400000
211 1 4.200000 12.600000 15.400000
212 1 9.800000 12.600000 15.400000
213 1 15.400000 12.600000 15.400000
214 1 1.400000 15.400000 15.400000
215 1 7.000000 15.400000 15.400000
216 1 12.600000 15.400000 15.400000
