LAMMPS data file via write_data, version 27 Jun 2024, timestep = 1, units = metal

216 atoms
1 atom types

0 15.600000000000001 xlo xhi
0 15.600000000000001 ylo yhi
0 15.600000000000001 zlo zhi

Masses

1 28.02

Atoms # atomic

1 1 0.000000 0.000000 0.000000
2 1 5.200000 0.000000 0.000000
3 1 10.400000 0.000000 0.000000
4 1 2.600000 2.600000 0.000000
5 1 7.800000 2.600000 0.000000
6 1 13.000000 2.600000 0.000000
7 1 0.000000 5.200000 0.000000
8 1 5.200000 5.200000 0.000000
9 1 10.400000 5.200000 0.000000
10 1 2.600000 7.800000 0.000000
11 1 7.800000 7.800000 0.000000
12 1 13.000000 7.800000 0.000000
13 1 0.000000 10.400000 0.000000
14 1 5.200000 10.400000 0.000000
15 1 10.400000 10.400000 0.000000
16 1 2.600000 13.000000 0.000000
17 1 7.800000 13.000000 0.000000
18 1 13.000000 13.000000 0.000000
19 1 1.300000 1.300000 1.300000
20 1 6.500000 1.300000 1.300000
21 1 11.700000 1.300000 1.300000
22 1 3.900000 3.900000 1.300000
23 1 9.100000 3.900000 1.300000
24 1 14.300000 3.900000 1.300000
25 1 1.300000 6.500000 1.300000
26 1 6.500000 6.500000 1.300000
27 1 11.700000 6.500000 1.300000
28 1 3.900000 9.100000 1.300000
29 1 9.100000 9.100000 1.300000
30 1 14.300000 9.100000 1.300000
31 1 1.300000 11.700000 1.300000
32 1 6.500000 11.700000 1.300000
33 1 11.700000 11.700000 1.300000
34 1 3.900000 14.300000 1.300000
35 1 9.100000 14.300000 1.300000
36 1 14.300000 14.300000 1.300000
37 1 2.600000 0.000000 2.600000
38 1 7.800000 0.000000 2.600000
39 1 13.000000 0.000000 2.600000
40 1 0.000000 2.600000 2.600000
41 1 5.200000 2.600000 2.600000
42 1 10.400000 2.600000 2.600000
43 1 2.600000 5.200000 2.600000
44 1 7.800000 5.200000 2.600000
45 1 13.000000 5.200000 2.600000
46 1 0.000000 7.800000 2.600000
47 1 5.200000 7.800000 2.600000
48 1 10.400000 7.800000 2.600000
49 1 2.600000 10.400000 2.600000
50 1 7.800000 10.400000 2.600000
51 1 13.000000 10.400000 2.600000
52 1 0.000000 13.000000 2.600000
53 1 5.200000 13.000000 2.600000
54 1 10.400000 13.000000 2.600000
55 1 3.900000 1.300000 3.900000
56 1 9.100000 1.300000 3.900000
57 1 14.300000 1.300000 3.900000
58 1 1.300000 3.900000 3.900000
59 1 6.500000 3.900000 3.900000
60 1 11.700000 3.900000 3.900000
61 1 3.900000 6.500000 3.900000
62 1 9.100000 6.500000 3.900000
63 1 14.300000 6.500000 3.900000
64 1 1.300000 9.100000 3.900000
65 1 6.500000 9.100000 3.900000
66 1 11.700000 9.100000 3.900000
67 1 3.900000 11.700000 3.900000
68 1 9.100000 11.700000 3.900000
69 1 14.300000 11.700000 3.900000
70 1 1.300000 14.300000 3.900000
71 1 6.500000 14.300000 3.900000
72 1 11.700000 14.300000 3.900000
73 1 0.000000 0.000000 5.200000
74 1 5.200000 0.000000 5.200000
75 1 10.400000 0.000000 5.200000
76 1 2.600000 2.600000 5.200000
77 1 7.800000 2.600000 5.200000
78 1 13.000000 2.600000 5.200000
79 1 0.000000 5.200000 5.200000
80 1 5.200000 5.200000 5.200000
81 1 10.400000 5.200000 5.200000
82 1 2.600000 7.800000 5.200000
83 1 7.800000 7.800000 5.200000
84 1 13.000000 7.800000 5.200000
85 1 0.000000 10.400000 5.200000
86 1 5.200000 10.400000 5.200000
87 1 10.400000 10.400000 5.200000
88 1 2.600000 13.000000 5.200000
89 1 7.800000 13.000000 5.200000
90 1 13.000000 13.000000 5.200000
91 1 1.300000 1.300000 6.500000
92 1 6.500000 1.300000 6.500000
93 1 11.700000 1.300000 6.500000
94 1 3.900000 3.900000 6.500000
95 1 9.100000 3.900000 6.500000
96 1 14.300000 3.900000 6.500000
97 1 1.300000 6.500000 6.500000
98 1 6.500000 6.500000 6.500000
99 1 11.700000 6.500000 6.500000
100 1 3.900000 9.100000 6.500000
101 1 9.100000 9.100000 6.500000
102 1 14.300000 9.100000 6.500000
103 1 1.300000 11.700000 6.500000
104 1 6.500000 11.700000 6.500000
105 1 11.700000 11.700000 6.500000
106 1 3.900000 14.300000 6.500000
107 1 9.100000 14.300000 6.500000
108 1 14.300000 14.300000 6.500000
109 1 2.600000 0.000000 7.800000
110 1 7.800000 0.000000 7.800000
111 1 13.000000 0.000000 7.800000
112 1 0.000000 2.600000 7.800000
113 1 5.200000 2.600000 7.800000
114 1 10.400000 2.600000 7.800000
115 1 2.600000 5.200000 7.800000
116 1 7.800000 5.200000 7.800000
117 1 13.000000 5.200000 7.800000
118 1 0.000000 7.800000 7.800000
119 1 5.200000 7.800000 7.800000
120 1 10.400000 7.800000 7.800000
121 1 2.600000 10.400000 7.800000
122 1 7.800000 10.400000 7.800000
123 1 13.000000 10.400000 7.800000
124 1 0.000000 13.000000 7.800000
125 1 5.200000 13.000000 7.800000
126 1 10.400000 13.000000 7.800000
127 1 3.900000 1.300000 9.100000
128 1 9.100000 1.300000 9.100000
129 1 14.300000 1.300000 9.100000
130 1 1.300000 3.900000 9.100000
131 1 6.500000 3.900000 9.100000
132 1 11.700000 3.900000 9.100000
133 1 3.900000 6.500000 9.100000
134 1 9.100000 6.500000 9.100000
135 1 14.300000 6.500000 9.100000
136 1 1.300000 9.100000 9.100000
137 1 6.500000 9.100000 9.100000
138 1 11.700000 9.100000 9.100000
139 1 3.900000 11.700000 9.100000
140 1 9.100000 11.700000 9.100000
141 1 14.300000 11.700000 9.100000
142 1 1.300000 14.300000 9.100000
143 1 6.500000 14.300000 9.100000
144 1 11.700000 14.300000 9.100000
145 1 0.000000 0.000000 10.400000
146 1 5.200000 0.000000 10.400000
147 1 10.400000 0.000000 10.400000
148 1 2.600000 2.600000 10.400000
149 1 7.800000 2.600000 10.400000
150 1 13.000000 2.600000 10.400000
151 1 0.000000 5.200000 10.400000
152 1 5.200000 5.200000 10.400000
153 1 10.400000 5.200000 10.400000
154 1 2.600000 7.800000 10.400000
155 1 7.800000 7.800000 10.400000
156 1 13.000000 7.800000 10.400000
157 1 0.000000 10.400000 10.400000
158 1 5.200000 10.400000 10.400000
159 1 10.400000 10.400000 10.400000
160 1 2.600000 13.000000 10.400000
161 1 7.800000 13.000000 10.400000
162 1 13.000000 13.000000 10.400000
163 1 1.300000 1.300000 11.700000
164 1 6.500000 1.300000 11.700000
165 1 11.700000 1.300000 11.700000
166 1 3.900000 3.900000 11.700000
167 1 9.100000 3.900000 11.700000
168 1 14.300000 3.900000 11.700000
169 1 1.300000 6.500000 11.700000
170 1 6.500000 6.500000 11.700000
171 1 11.700000 6.500000 11.700000
172 1 3.900000 9.100000 11.700000
173 1 9.100000 9.100000 11.700000
174 1 14.300000 9.100000 11.700000
175 1 1.300000 11.700000 11.700000
176 1 6.500000 11.700000 11.700000
177 1 11.700000 11.700000 11.700000
178 1 3.900000 14.300000 11.700000
179 1 9.100000 14.300000 11.700000
180 1 14.300000 14.300000 11.700000
181 1 2.600000 0.000000 13.000000
182 1 7.800000 0.000000 13.000000
183 1 13.000000 0.000000 13.000000
184 1 0.000000 2.600000 13.000000
185 1 5.200000 2.600000 13.000000
186 1 10.400000 2.600000 13.000000
187 1 2.600000 5.200000 13.000000
188 1 7.800000 5.200000 13.000000
189 1 13.000000 5.200000 13.000000
190 1 0.000000 7.800000 13.000000
191 1 5.200000 7.800000 13.000000
192 1 10.400000 7.800000 13.000000
193 1 2.600000 10.400000 13.000000
194 1 7.800000 10.400000 13.000000
195 1 13.000000 10.400000 13.000000
196 1 0.000000 13.000000 13.000000
197 1 5.200000 13.000000 13.000000
198 1 10.400000 13.000000 13.000000
199 1 3.900000 1.300000 14.300000
200 1 9.100000 1.300000 14.300000
201 1 14.300000 1.300000 14.300000
202 1 1.300000 3.900000 14.300000
203 1 6.500000 3.900000 14.300000
204 1 11.700000 3.900000 14.300000
205 1 3.900000 6.500000 14.300000
206 1 9.100000 6.500000 14.300000
207 1 14.300000 6.500000 14.300000
208 1 1.300000 9.100000 14.300000
209 1 6.500000 9.100000 14.300000
210 1 11.700000 9.100000 14.300000
211 1 3.900000 11.700000 14.300000
212 1 9.100000 11.700000 14.300000
213 1 14.300000 11.700000 14.300000
214 1 1.300000 14.300000 14.300000
215 1 6.500000 14.300000 14.300000
216 1 11.700000 14.300000 14.300000
