LAMMPS data file via write_data, version 27 Jun 2024, timestep = 1, units = metal

216 atoms
1 atom types

0 16.200000000000003 xlo xhi
0 16.200000000000003 ylo yhi
0 16.200000000000003 zlo zhi

Masses

1 28.02

Atoms # atomic

1 1 0.000000 0.000000 0.000000
2 1 5.400000 0.000000 0.000000
3 1 10.800000 0.000000 0.000000
4 1 2.700000 2.700000 0.000000
5 1 8.100000 2.700000 0.000000
6 1 13.500000 2.700000 0.000000
7 1 0.000000 5.400000 0.000000
8 1 5.400000 5.400000 0.000000
9 1 10.800000 5.400000 0.000000
10 1 2.700000 8.100000 0.000000
11 1 8.100000 8.100000 0.000000
12 1 13.500000 8.100000 0.000000
13 1 0.000000 10.800000 0.000000
14 1 5.400000 10.800000 0.000000
15 1 10.800000 10.800000 0.000000
16 1 2.700000 13.500000 0.000000
17 1 8.100000 13.500000 0.000000
18 1 13.500000 13.500000 0.000000
19 1 1.350000 1.350000 1.350000
20 1 6.750000 1.350000 1.350000
21 1 12.150000 1.350000 1.350000
22 1 4.050000 4.050000 1.350000
23 1 9.450000 4.050000 1.350000
24 1 14.850000 4.050000 1.350000
25 1 1.350000 6.750000 1.350000
26 1 6.750000 6.750000 1.350000
27 1 12.150000 6.750000 1.350000
28 1 4.050000 9.450000 1.350000
29 1 9.450000 9.450000 1.350000
30 1 14.850000 9.450000 1.350000
31 1 1.350000 12.150000 1.350000
32 1 6.750000 12.150000 1.350000
33 1 12.150000 12.150000 1.350000
34 1 4.050000 14.850000 1.350000
35 1 9.450000 14.850000 1.350000
36 1 14.850000 14.850000 1.350000
37 1 2.700000 0.000000 2.700000
38 1 8.100000 0.000000 2.700000
39 1 13.500000 0.000000 2.700000
40 1 0.000000 2.700000 2.700000
41 1 5.400000 2.700000 2.700000
42 1 10.800000 2.700000 2.700000
43 1 2.700000 5.400000 2.700000
44 1 8.100000 5.400000 2.700000
45 1 13.500000 5.400000 2.700000
46 1 0.000000 8.100000 2.700000
47 1 5.400000 8.100000 2.700000
48 1 10.800000 8.100000 2.700000
49 1 2.700000 10.800000 2.700000
50 1 8.100000 10.800000 2.700000
51 1 13.500000 10.800000 2.700000
52 1 0.000000 13.500000 2.700000
53 1 5.400000 13.500000 2.700000
54 1 10.800000 13.500000 2.700000
55 1 4.050000 1.350000 4.050000
56 1 9.450000 1.350000 4.050000
57 1 14.850000 1.350000 4.050000
58 1 1.350000 4.050000 4.050000
59 1 6.750000 4.050000 4.050000
60 1 12.150000 4.050000 4.050000
61 1 4.050000 6.750000 4.050000
62 1 9.450000 6.750000 4.050000
63 1 14.850000 6.750000 4.050000
64 1 1.350000 9.450000 4.050000
65 1 6.750000 9.450000 4.050000
66 1 12.150000 9.450000 4.050000
67 1 4.050000 12.150000 4.050000
68 1 9.450000 12.150000 4.050000
69 1 14.850000 12.150000 4.050000
70 1 1.350000 14.850000 4.050000
71 1 6.750000 14.850000 4.050000
72 1 12.150000 14.850000 4.050000
73 1 0.000000 0.000000 5.400000
74 1 5.400000 0.000000 5.400000
75 1 10.800000 0.000000 5.400000
76 1 2.700000 2.700000 5.400000
77 1 8.100000 2.700000 5.400000
78 1 13.500000 2.700000 5.400000
79 1 0.000000 5.400000 5.400000
80 1 5.400000 5.400000 5.400000
81 1 10.800000 5.400000 5.400000
82 1 2.700000 8.100000 5.400000
83 1 8.100000 8.100000 5.400000
84 1 13.500000 8.100000 5.400000
85 1 0.000000 10.800000 5.400000
86 1 5.400000 10.800000 5.400000
87 1 10.800000 10.800000 5.400000
88 1 2.700000 13.500000 5.400000
89 1 8.100000 13.500000 5.400000
90 1 13.500000 13.500000 5.400000
91 1 1.350000 1.350000 6.750000
92 1 6.750000 1.350000 6.750000
93 1 12.150000 1.350000 6.750000
94 1 4.050000 4.050000 6.750000
95 1 9.450000 4.050000 6.750000
96 1 14.850000 4.050000 6.750000
97 1 1.350000 6.750000 6.750000
98 1 6.750000 6.750000 6.750000
99 1 12.150000 6.750000 6.750000
100 1 4.050000 9.450000 6.750000
101 1 9.450000 9.450000 6.750000
102 1 14.850000 9.450000 6.750000
103 1 1.350000 12.150000 6.750000
104 1 6.750000 12.150000 6.750000
105 1 12.150000 12.150000 6.750000
106 1 4.050000 14.850000 6.750000
107 1 9.450000 14.850000 6.750000
108 1 14.850000 14.850000 6.750000
109 1 2.700000 0.000000 8.100000
110 1 8.100000 0.000000 8.100000
111 1 13.500000 0.000000 8.100000
112 1 0.000000 2.700000 8.100000
113 1 5.400000 2.700000 8.100000
114 1 10.800000 2.700000 8.100000
115 1 2.700000 5.400000 8.100000
116 1 8.100000 5.400000 8.100000
117 1 13.500000 5.400000 8.100000
118 1 0.000000 8.100000 8.100000
119 1 5.400000 8.100000 8.100000
120 1 10.800000 8.100000 8.100000
121 1 2.700000 10.800000 8.100000
122 1 8.100000 10.800000 8.100000
123 1 13.500000 10.800000 8.100000
124 1 0.000000 13.500000 8.100000
125 1 5.400000 13.500000 8.100000
126 1 10.800000 13.500000 8.100000
127 1 4.050000 1.350000 9.450000
128 1 9.450000 1.350000 9.450000
129 1 14.850000 1.350000 9.450000
130 1 1.350000 4.050000 9.450000
131 1 6.750000 4.050000 9.450000
132 1 12.150000 4.050000 9.450000
133 1 4.050000 6.750000 9.450000
134 1 9.450000 6.750000 9.450000
135 1 14.850000 6.750000 9.450000
136 1 1.350000 9.450000 9.450000
137 1 6.750000 9.450000 9.450000
138 1 12.150000 9.450000 9.450000
139 1 4.050000 12.150000 9.450000
140 1 9.450000 12.150000 9.450000
141 1 14.850000 12.150000 9.450000
142 1 1.350000 14.850000 9.450000
143 1 6.750000 14.850000 9.450000
144 1 12.150000 14.850000 9.450000
145 1 0.000000 0.000000 10.800000
146 1 5.400000 0.000000 10.800000
147 1 10.800000 0.000000 10.800000
148 1 2.700000 2.700000 10.800000
149 1 8.100000 2.700000 10.800000
150 1 13.500000 2.700000 10.800000
151 1 0.000000 5.400000 10.800000
152 1 5.400000 5.400000 10.800000
153 1 10.800000 5.400000 10.800000
154 1 2.700000 8.100000 10.800000
155 1 8.100000 8.100000 10.800000
156 1 13.500000 8.100000 10.800000
157 1 0.000000 10.800000 10.800000
158 1 5.400000 10.800000 10.800000
159 1 10.800000 10.800000 10.800000
160 1 2.700000 13.500000 10.800000
161 1 8.100000 13.500000 10.800000
162 1 13.500000 13.500000 10.800000
163 1 1.350000 1.350000 12.150000
164 1 6.750000 1.350000 12.150000
165 1 12.150000 1.350000 12.150000
166 1 4.050000 4.050000 12.150000
167 1 9.450000 4.050000 12.150000
168 1 14.850000 4.050000 12.150000
169 1 1.350000 6.750000 12.150000
170 1 6.750000 6.750000 12.150000
171 1 12.150000 6.750000 12.150000
172 1 4.050000 9.450000 12.150000
173 1 9.450000 9.450000 12.150000
174 1 14.850000 9.450000 12.150000
175 1 1.350000 12.150000 12.150000
176 1 6.750000 12.150000 12.150000
177 1 12.150000 12.150000 12.150000
178 1 4.050000 14.850000 12.150000
179 1 9.450000 14.850000 12.150000
180 1 14.850000 14.850000 12.150000
181 1 2.700000 0.000000 13.500000
182 1 8.100000 0.000000 13.500000
183 1 13.500000 0.000000 13.500000
184 1 0.000000 2.700000 13.500000
185 1 5.400000 2.700000 13.500000
186 1 10.800000 2.700000 13.500000
187 1 2.700000 5.400000 13.500000
188 1 8.100000 5.400000 13.500000
189 1 13.500000 5.400000 13.500000
190 1 0.000000 8.100000 13.500000
191 1 5.400000 8.100000 13.500000
192 1 10.800000 8.100000 13.500000
193 1 2.700000 10.800000 13.500000
194 1 8.100000 10.800000 13.500000
195 1 13.500000 10.800000 13.500000
196 1 0.000000 13.500000 13.500000
197 1 5.400000 13.500000 13.500000
198 1 10.800000 13.500000 13.500000
199 1 4.050000 1.350000 14.850000
200 1 9.450000 1.350000 14.850000
201 1 14.850000 1.350000 14.850000
202 1 1.350000 4.050000 14.850000
203 1 6.750000 4.050000 14.850000
204 1 12.150000 4.050000 14.850000
205 1 4.050000 6.750000 14.850000
206 1 9.450000 6.750000 14.850000
207 1 14.850000 6.750000 14.850000
208 1 1.350000 9.450000 14.850000
209 1 6.750000 9.450000 14.850000
210 1 12.150000 9.450000 14.850000
211 1 4.050000 12.150000 14.850000
212 1 9.450000 12.150000 14.850000
213 1 14.850000 12.150000 14.850000
214 1 1.350000 14.850000 14.850000
215 1 6.750000 14.850000 14.850000
216 1 12.150000 14.850000 14.850000
