LAMMPS data file via write_data, version 27 Jun 2024, timestep = 1, units = metal

216 atoms
1 atom types

0 16.65 xlo xhi
0 16.65 ylo yhi
0 16.65 zlo zhi

Masses

1 28.02

Atoms # atomic

1 1 0.000000 0.000000 0.000000
2 1 5.550000 0.000000 0.000000
3 1 11.100000 0.000000 0.000000
4 1 2.775000 2.775000 0.000000
5 1 8.325000 2.775000 0.000000
6 1 13.875000 2.775000 0.000000
7 1 0.000000 5.550000 0.000000
8 1 5.550000 5.550000 0.000000
9 1 11.100000 5.550000 0.000000
10 1 2.775000 8.325000 0.000000
11 1 8.325000 8.325000 0.000000
12 1 13.875000 8.325000 0.000000
13 1 0.000000 11.100000 0.000000
14 1 5.550000 11.100000 0.000000
15 1 11.100000 11.100000 0.000000
16 1 2.775000 13.875000 0.000000
17 1 8.325000 13.875000 0.000000
18 1 13.875000 13.875000 0.000000
19 1 1.387500 1.387500 1.387500
20 1 6.937500 1.387500 1.387500
21 1 12.487500 1.387500 1.387500
22 1 4.162500 4.162500 1.387500
23 1 9.712500 4.162500 1.387500
24 1 15.262500 4.162500 1.387500
25 1 1.387500 6.937500 1.387500
26 1 6.937500 6.937500 1.387500
27 1 12.487500 6.937500 1.387500
28 1 4.162500 9.712500 1.387500
29 1 9.712500 9.712500 1.387500
30 1 15.262500 9.712500 1.387500
31 1 1.387500 12.487500 1.387500
32 1 6.937500 12.487500 1.387500
33 1 12.487500 12.487500 1.387500
34 1 4.162500 15.262500 1.387500
35 1 9.712500 15.262500 1.387500
36 1 15.262500 15.262500 1.387500
37 1 2.775000 0.000000 2.775000
38 1 8.325000 0.000000 2.775000
39 1 13.875000 0.000000 2.775000
40 1 0.000000 2.775000 2.775000
41 1 5.550000 2.775000 2.775000
42 1 11.100000 2.775000 2.775000
43 1 2.775000 5.550000 2.775000
44 1 8.325000 5.550000 2.775000
45 1 13.875000 5.550000 2.775000
46 1 0.000000 8.325000 2.775000
47 1 5.550000 8.325000 2.775000
48 1 11.100000 8.325000 2.775000
49 1 2.775000 11.100000 2.775000
50 1 8.325000 11.100000 2.775000
51 1 13.875000 11.100000 2.775000
52 1 0.000000 13.875000 2.775000
53 1 5.550000 13.875000 2.775000
54 1 11.100000 13.875000 2.775000
55 1 4.162500 1.387500 4.162500
56 1 9.712500 1.387500 4.162500
57 1 15.262500 1.387500 4.162500
58 1 1.387500 4.162500 4.162500
59 1 6.937500 4.162500 4.162500
60 1 12.487500 4.162500 4.162500
61 1 4.162500 6.937500 4.162500
62 1 9.712500 6.937500 4.162500
63 1 15.262500 6.937500 4.162500
64 1 1.387500 9.712500 4.162500
65 1 6.937500 9.712500 4.162500
66 1 12.487500 9.712500 4.162500
67 1 4.162500 12.487500 4.162500
68 1 9.712500 12.487500 4.162500
69 1 15.262500 12.487500 4.162500
70 1 1.387500 15.262500 4.162500
71 1 6.937500 15.262500 4.162500
72 1 12.487500 15.262500 4.162500
73 1 0.000000 0.000000 5.550000
74 1 5.550000 0.000000 5.550000
75 1 11.100000 0.000000 5.550000
76 1 2.775000 2.775000 5.550000
77 1 8.325000 2.775000 5.550000
78 1 13.875000 2.775000 5.550000
79 1 0.000000 5.550000 5.550000
80 1 5.550000 5.550000 5.550000
81 1 11.100000 5.550000 5.550000
82 1 2.775000 8.325000 5.550000
83 1 8.325000 8.325000 5.550000
84 1 13.875000 8.325000 5.550000
85 1 0.000000 11.100000 5.550000
86 1 5.550000 11.100000 5.550000
87 1 11.100000 11.100000 5.550000
88 1 2.775000 13.875000 5.550000
89 1 8.325000 13.875000 5.550000
90 1 13.875000 13.875000 5.550000
91 1 1.387500 1.387500 6.937500
92 1 6.937500 1.387500 6.937500
93 1 12.487500 1.387500 6.937500
94 1 4.162500 4.162500 6.937500
95 1 9.712500 4.162500 6.937500
96 1 15.262500 4.162500 6.937500
97 1 1.387500 6.937500 6.937500
98 1 6.937500 6.937500 6.937500
99 1 12.487500 6.937500 6.937500
100 1 4.162500 9.712500 6.937500
101 1 9.712500 9.712500 6.937500
102 1 15.262500 9.712500 6.937500
103 1 1.387500 12.487500 6.937500
104 1 6.937500 12.487500 6.937500
105 1 12.487500 12.487500 6.937500
106 1 4.162500 15.262500 6.937500
107 1 9.712500 15.262500 6.937500
108 1 15.262500 15.262500 6.937500
109 1 2.775000 0.000000 8.325000
110 1 8.325000 0.000000 8.325000
111 1 13.875000 0.000000 8.325000
112 1 0.000000 2.775000 8.325000
113 1 5.550000 2.775000 8.325000
114 1 11.100000 2.775000 8.325000
115 1 2.775000 5.550000 8.325000
116 1 8.325000 5.550000 8.325000
117 1 13.875000 5.550000 8.325000
118 1 0.000000 8.325000 8.325000
119 1 5.550000 8.325000 8.325000
120 1 11.100000 8.325000 8.325000
121 1 2.775000 11.100000 8.325000
122 1 8.325000 11.100000 8.325000
123 1 13.875000 11.100000 8.325000
124 1 0.000000 13.875000 8.325000
125 1 5.550000 13.875000 8.325000
126 1 11.100000 13.875000 8.325000
127 1 4.162500 1.387500 9.712500
128 1 9.712500 1.387500 9.712500
129 1 15.262500 1.387500 9.712500
130 1 1.387500 4.162500 9.712500
131 1 6.937500 4.162500 9.712500
132 1 12.487500 4.162500 9.712500
133 1 4.162500 6.937500 9.712500
134 1 9.712500 6.937500 9.712500
135 1 15.262500 6.937500 9.712500
136 1 1.387500 9.712500 9.712500
137 1 6.937500 9.712500 9.712500
138 1 12.487500 9.712500 9.712500
139 1 4.162500 12.487500 9.712500
140 1 9.712500 12.487500 9.712500
141 1 15.262500 12.487500 9.712500
142 1 1.387500 15.262500 9.712500
143 1 6.937500 15.262500 9.712500
144 1 12.487500 15.262500 9.712500
145 1 0.000000 0.000000 11.100000
146 1 5.550000 0.000000 11.100000
147 1 11.100000 0.000000 11.100000
148 1 2.775000 2.775000 11.100000
149 1 8.325000 2.775000 11.100000
150 1 13.875000 2.775000 11.100000
151 1 0.000000 5.550000 11.100000
152 1 5.550000 5.550000 11.100000
153 1 11.100000 5.550000 11.100000
154 1 2.775000 8.325000 11.100000
155 1 8.325000 8.325000 11.100000
156 1 13.875000 8.325000 11.100000
157 1 0.000000 11.100000 11.100000
158 1 5.550000 11.100000 11.100000
159 1 11.100000 11.100000 11.100000
160 1 2.775000 13.875000 11.100000
161 1 8.325000 13.875000 11.100000
162 1 13.875000 13.875000 11.100000
163 1 1.387500 1.387500 12.487500
164 1 6.937500 1.387500 12.487500
165 1 12.487500 1.387500 12.487500
166 1 4.162500 4.162500 12.487500
167 1 9.712500 4.162500 12.487500
168 1 15.262500 4.162500 12.487500
169 1 1.387500 6.937500 12.487500
170 1 6.937500 6.937500 12.487500
171 1 12.487500 6.937500 12.487500
172 1 4.162500 9.712500 12.487500
173 1 9.712500 9.712500 12.487500
174 1 15.262500 9.712500 12.487500
175 1 1.387500 12.487500 12.487500
176 1 6.937500 12.487500 12.487500
177 1 12.487500 12.487500 12.487500
178 1 4.162500 15.262500 12.487500
179 1 9.712500 15.262500 12.487500
180 1 15.262500 15.262500 12.487500
181 1 2.775000 0.000000 13.875000
182 1 8.325000 0.000000 13.875000
183 1 13.875000 0.000000 13.875000
184 1 0.000000 2.775000 13.875000
185 1 5.550000 2.775000 13.875000
186 1 11.100000 2.775000 13.875000
187 1 2.775000 5.550000 13.875000
188 1 8.325000 5.550000 13.875000
189 1 13.875000 5.550000 13.875000
190 1 0.000000 8.325000 13.875000
191 1 5.550000 8.325000 13.875000
192 1 11.100000 8.325000 13.875000
193 1 2.775000 11.100000 13.875000
194 1 8.325000 11.100000 13.875000
195 1 13.875000 11.100000 13.875000
196 1 0.000000 13.875000 13.875000
197 1 5.550000 13.875000 13.875000
198 1 11.100000 13.875000 13.875000
199 1 4.162500 1.387500 15.262500
200 1 9.712500 1.387500 15.262500
201 1 15.262500 1.387500 15.262500
202 1 1.387500 4.162500 15.262500
203 1 6.937500 4.162500 15.262500
204 1 12.487500 4.162500 15.262500
205 1 4.162500 6.937500 15.262500
206 1 9.712500 6.937500 15.262500
207 1 15.262500 6.937500 15.262500
208 1 1.387500 9.712500 15.262500
209 1 6.937500 9.712500 15.262500
210 1 12.487500 9.712500 15.262500
211 1 4.162500 12.487500 15.262500
212 1 9.712500 12.487500 15.262500
213 1 15.262500 12.487500 15.262500
214 1 1.387500 15.262500 15.262500
215 1 6.937500 15.262500 15.262500
216 1 12.487500 15.262500 15.262500
