LAMMPS (30 Mar 2026)
OMP_NUM_THREADS environment is not set. Defaulting to 1 thread.
  using 1 OpenMP thread(s) per MPI task
# ----------------------------------------------------------
# Bulk Modulus Calculation of Silicon
# ----------------------------------------------------------

units           metal
boundary        p p p
atom_style      atomic

# ------------------ Geometry Generation -------------

variable pwd_path getenv PWD

print "${pwd_path}"
/home/nitheesh/materials-platform/lammps/Si/init_scripts

variable structure_file_name string ${structure_file_path}si_structure_${lattice_constant}.txt
variable structure_file_name string ../structures/bulk_modulus/si_structure_${lattice_constant}.txt
variable structure_file_name string ../structures/bulk_modulus/si_structure_5.70.txt

read_data ${structure_file_name}
read_data ../structures/bulk_modulus/si_structure_5.70.txt
Reading data file ...
  orthogonal box = (0 0 0) to (17.1 17.1 17.1)
  1 by 1 by 1 MPI processor grid
  reading atoms ...
  216 atoms
  read_data CPU = 0.001 seconds

# ------------------ Interatomic Potential -----------------
# Using the standard Stillinger-Weber (SW) potential
pair_style      sw
pair_coeff      * * ${potential_path} Si
pair_coeff      * * ../potentials/Si.sw Si
Reading sw potential file ../potentials/Si.sw with DATE: 2007-06-11

neighbor 2.0 bin
neigh_modify delay 10

# ---------- Thermo ----------
thermo 1
thermo_style custom step pe press vol lx ly lz

# ---------- Energy Minimization ----------
reset_timestep 0

min_style cg
minimize 1.0e-12 1.0e-12 10000 100000
Switching to 'neigh_modify every 1 delay 0 check yes' setting during minimization
Neighbor list info ...
  update: every = 1 steps, delay = 0 steps, check = yes
  max neighbors/atom: 2000, page size: 100000
  master list distance cutoff = 5.77118
  ghost atom cutoff = 5.77118
  binsize = 2.88559, bins = 6 6 6
  1 neighbor lists, perpetual/occasional/extra = 1 0 0
  (1) pair sw, perpetual
      attributes: full, newton on
      pair build: full/bin/atomonly
      stencil: full/bin/3d
      bin: standard
Per MPI rank memory allocation (min/avg/max) = 4.218 | 4.218 | 4.218 Mbytes
   Step         PotEng         Press          Volume           Lx             Ly             Lz      
         0  -909.14873     -119062.61      5000.211       17.1           17.1           17.1         
         1  -909.14873     -119062.61      5000.211       17.1           17.1           17.1         
Loop time of 0.000360674 on 1 procs for 1 steps with 216 atoms

81.0% CPU use with 1 MPI tasks x 1 OpenMP threads

Minimization stats:
  Stopping criterion = energy tolerance
  Energy initial, next-to-last, final = 
      -909.14873174739   -909.14873174739   -909.14873174739
  Force two-norm initial, final = 2.0390294e-13 2.0753072e-13
  Force max component initial, final = 1.6674799e-14 1.6701615e-14
  Final line search alpha, max atom move = 1 1.6701615e-14
  Iterations, force evaluations = 1 2

MPI task timing breakdown:
Section |  min time  |  avg time  |  max time  |%varavg| %total
---------------------------------------------------------------
Pair    | 0.00033355 | 0.00033355 | 0.00033355 |   0.0 | 92.48
Neigh   | 0          | 0          | 0          |   0.0 |  0.00
Comm    | 9.218e-06  | 9.218e-06  | 9.218e-06  |   0.0 |  2.56
Output  | 0          | 0          | 0          |   0.0 |  0.00
Modify  | 0          | 0          | 0          |   0.0 |  0.00
Other   |            | 1.79e-05   |            |       |  4.96

Nlocal:            216 ave         216 max         216 min
Histogram: 1 0 0 0 0 0 0 0 0 0
Nghost:            950 ave         950 max         950 min
Histogram: 1 0 0 0 0 0 0 0 0 0
Neighs:              0 ave           0 max           0 min
Histogram: 1 0 0 0 0 0 0 0 0 0
FullNghs:         7344 ave        7344 max        7344 min
Histogram: 1 0 0 0 0 0 0 0 0 0

Total # of neighbors = 7344
Ave neighs/atom = 34
Neighbor list builds = 0
Dangerous builds = 0

# ---------- Store Results ----------
variable Etot equal pe
variable Vol equal vol
variable Press equal press


# print "Lattice_constant Volume Total_energy Pressure" append ../results/bulk_modulus/E_vs_V.txt
print "${lattice_constant} ${Vol} ${Etot} ${Press}" append ../results/bulk_modulus/E_vs_V.txt
5.70 5000.211 -909.14873174739 -119062.605324314
print "Finished simulation for lattice constant = ${lattice_constant}"
Finished simulation for lattice constant = 5.70


Total wall time: 0:00:00
