LAMMPS (30 Mar 2026)
OMP_NUM_THREADS environment is not set. Defaulting to 1 thread.
  using 1 OpenMP thread(s) per MPI task

# ------------------ Initialization ------------------
units           metal
boundary        p p p
atom_style      atomic

# ------------------ Geometry Generation -------------
# Silicon diamond cubic lattice constant is 5.431 Angstroms

variable pwd_path getenv PWD

variable structure_file string ../structures/si_structure.txt

variable first_run_step equal ${steps}
variable first_run_step equal 50000

read_data ../structures/si_structure.txt
Reading data file ...
  orthogonal box = (0 0 0) to (16.29 16.29 16.29)
  1 by 1 by 1 MPI processor grid
  reading atoms ...
  216 atoms
  read_data CPU = 0.002 seconds

# ------------------ Interatomic Potential -----------------
# Using the standard Stillinger-Weber (SW) potential
pair_style      sw
pair_coeff      * * ../potentials/Si.sw Si
Reading sw potential file ../potentials/Si.sw with DATE: 2007-06-11


# ------------------ Compute -----------------
compute eng all pe/atom
compute eatoms all reduce sum c_eng
compute new all temp


# ------------------ Energy Minimization -------------
# Relax the structure to remove any initial overlapping/strain
thermo          10
thermo_style    custom step temp pe press vol

minimize 1.0e-6 1.0e-6 5000 10000
Neighbor list info ...
  update: every = 1 steps, delay = 0 steps, check = yes
  max neighbors/atom: 2000, page size: 100000
  master list distance cutoff = 5.77118
  ghost atom cutoff = 5.77118
  binsize = 2.88559, bins = 6 6 6
  1 neighbor lists, perpetual/occasional/extra = 1 0 0
  (1) pair sw, perpetual
      attributes: full, newton on
      pair build: full/bin/atomonly
      stencil: full/bin/3d
      bin: standard
Per MPI rank memory allocation (min/avg/max) = 4.343 | 4.343 | 4.343 Mbytes
   Step          Temp          PotEng         Press          Volume    
         0   0             -936.70522      532.56802      4322.7812    
         1   0             -936.70522      532.56802      4322.7812    
Loop time of 0.000725866 on 1 procs for 1 steps with 216 atoms

98.9% CPU use with 1 MPI tasks x 1 OpenMP threads

Minimization stats:
  Stopping criterion = quadratic factors are zero
  Energy initial, next-to-last, final = 
     -936.705223045316  -936.705223045316  -936.705223045316
  Force two-norm initial, final = 1.1685261e-17 1.1685261e-17
  Force max component initial, final = 8.6736205e-19 8.6736205e-19
  Final line search alpha, max atom move = 1 8.6736205e-19
  Iterations, force evaluations = 1 2

MPI task timing breakdown:
Section |  min time  |  avg time  |  max time  |%varavg| %total
---------------------------------------------------------------
Pair    | 0.00068183 | 0.00068183 | 0.00068183 |   0.0 | 93.93
Neigh   | 0          | 0          | 0          |   0.0 |  0.00
Comm    | 1.7663e-05 | 1.7663e-05 | 1.7663e-05 |   0.0 |  2.43
Output  | 0          | 0          | 0          |   0.0 |  0.00
Modify  | 0          | 0          | 0          |   0.0 |  0.00
Other   |            | 2.637e-05  |            |       |  3.63

Nlocal:            216 ave         216 max         216 min
Histogram: 1 0 0 0 0 0 0 0 0 0
Nghost:            950 ave         950 max         950 min
Histogram: 1 0 0 0 0 0 0 0 0 0
Neighs:              0 ave           0 max           0 min
Histogram: 1 0 0 0 0 0 0 0 0 0
FullNghs:         7344 ave        7344 max        7344 min
Histogram: 1 0 0 0 0 0 0 0 0 0

Total # of neighbors = 7344
Ave neighs/atom = 34
Neighbor list builds = 0
Dangerous builds = 0

# ------------------ Equilibration (NVT/NPT) ---------
reset_timestep  0
velocity all create ${temperature} 87287 loop geom
velocity all create 200 87287 loop geom

# ---------- Timestamp Details ----------
# Reference timestep for metal units with Silicon is typically 1-2 fs
timestep        0.001



# ---------- NPT Fix ----------

# Tdamp - 100*Timestep
# Pdamp - 1000*Timestep

fix 1 all npt temp ${temperature} ${temperature} 0.1 iso ${pressure} ${pressure} 1.0
fix 1 all npt temp 200 ${temperature} 0.1 iso ${pressure} ${pressure} 1.0
fix 1 all npt temp 200 200 0.1 iso ${pressure} ${pressure} 1.0
fix 1 all npt temp 200 200 0.1 iso 0.0 ${pressure} 1.0
fix 1 all npt temp 200 200 0.1 iso 0.0 0.0 1.0

# ---------- Dump Details ----------
variable dump_path string "../results/lattice_parameter/si_out_${temperature}.dat"
../results/lattice_parameter/si_out_200.dat

dump 1 all custom 5000 ${dump_path} mass type xs ys zs
dump 1 all custom 5000 ../results/lattice_parameter/si_out_200.dat mass type xs ys zs

dump_modify 1 sort id

# ---------- Equilibration ----------
run ${first_run_step}
run 50000
Per MPI rank memory allocation (min/avg/max) = 3.218 | 3.218 | 3.218 Mbytes
   Step          Temp          PotEng         Press          Volume    
         0   200           -936.70522      1905.9424      4322.7812    
        10   108.02489     -934.14105      1901.3746      4323.6803    
        20   62.861493     -932.86993      1155.8522      4326.3009    
        30   123.70386     -934.50653     -187.72015      4329.9568    
        40   76.408771     -933.10021     -946.33166      4333.4988    
        50   59.864158     -932.58385     -1472.4261      4336.1726    
        60   129.86351     -934.44022     -1902.6885      4337.4655    
        70   100.15029     -933.51641     -1532.6812      4337.0409    
        80   90.106174     -933.17583     -922.75144      4335.1925    
        90   142.95208     -934.55841     -403.53362      4332.4662    
       100   108.18578     -933.49011      449.66531      4329.3974    
       110   97.191899     -933.10423      1065.8586      4326.7326    
       120   137.17208     -934.10529      1272.8047      4325.0329    
       130   102.9013      -933.03351      1569.1194      4324.5423    
       140   102.24119     -932.92289      1440.1151      4325.4892    
       150   150.78398     -934.14499      765.60454      4327.7436    
       160   121.57956     -933.19655      224.92027      4330.7413    
       170   113.72981     -932.87163     -387.88022      4333.9534    
       180   155.34188     -933.8941      -1130.9668      4336.7959    
       190   129.25935     -933.02611     -1429.9971      4338.6224    
       200   114.3012      -932.49797     -1510.964       4339.1237    
       210   153.31054     -933.45068     -1546.845       4338.203     
       220   139.66493     -932.92472     -1019.6972      4335.8757    
       230   116.80125     -932.16925     -153.58082      4332.6171    
       240   139.76387     -932.67955      566.00744      4329.1982    
       250   135.26723     -932.40975      1325.1982      4326.3164    
       260   126.2041      -932.02609      1941.543       4324.6676    
       270   164.99306     -932.9594       1966.889       4324.7902    
       280   176.07886     -933.1013       1578.3989      4326.7307    
       290   145.14524     -932.0998       901.48029      4330.1436    
       300   159.9212      -932.37787     -195.77248      4334.3829    
       310   174.29897     -932.62278     -1231.8112      4338.4626    
       320   152.37086     -931.86686     -1880.0831      4341.4306    
       330   155.24748     -931.81226     -2208.0463      4342.6579    
       340   166.75701     -931.98751     -1949.5402      4341.8528    
       350   161.47747     -931.69731     -1093.3873      4339.2589    
       360   193.82128     -932.44671     -208.96661      4335.6314    
       370   212.13524     -932.79062      633.50021      4331.8015    
       380   165.17264     -931.34635      1487.388       4328.57      
       390   158.27768     -931.03961      1857.0212      4326.6919    
       400   186.28926     -931.68445      1751.6061      4326.5186    
       410   178.30525     -931.32326      1434.0642      4327.981     
       420   177.22042     -931.16374      776.96963      4330.7735    
       430   183.28767     -931.19809     -18.43942       4334.3023    
       440   175.13292     -930.83836     -662.51885      4337.8496    
       450   209.99069     -931.66879     -1328.5141      4340.7863    
       460   213.57985     -931.62388     -1663.8658      4342.5123    
       470   173.06184     -930.38235     -1484.7661      4342.7214    
       480   208.87123     -931.26827     -1185.0455      4341.5379    
       490   238.4485      -931.96563     -637.82697      4339.2562    
       500   197.80088     -930.73563      125.23799      4336.392     
       510   226.04336     -931.43695      513.72455      4333.6069    
       520   235.21977     -931.6113       863.67065      4331.2998    
       530   154.53575     -929.31204      1396.7724      4329.824     
       540   188.12694     -930.19084      1361.0936      4329.61      
       550   253.93345     -931.93886      1040.4327      4330.6578    
       560   183.15689     -929.90942      928.15777      4332.7219    
       570   191.45026     -930.0929       247.90174      4335.6272    
       580   269.5669      -932.20207     -745.92882      4338.7599    
       590   200.96534     -930.257       -1076.1562      4341.2744    
       600   170.9659      -929.40087     -1314.3196      4342.7952    
       610   249.87349     -931.56375     -1645.0625      4343.0719    
       620   224.45377     -930.84089     -1279.7886      4341.862     
       630   191.87552     -929.93661     -604.52956      4339.4654    
       640   233.67164     -931.10378     -39.83264       4336.4776    
       650   216.68437     -930.64824      698.37034      4333.4623    
       660   207.162       -930.40877      1268.3237      4331.0811    
       670   235.57192     -931.23662      1549.7648      4329.8631    
       680   216.53372     -930.76243      1658.8495      4330.0955    
       690   231.95563     -931.26095      1080.6873      4331.8398    
       700   227.20151     -931.22473      153.041        4334.5924    
       710   142.35734     -928.94133     -449.26703      4337.549     
       720   182.2115      -930.09373     -1160.7522      4340.0923    
       730   255.21393     -932.18381     -1600.5502      4341.5815    
       740   193.45268     -930.54736     -1241.4932      4341.6426    
       750   184.20157     -930.35379     -829.07556      4340.5351    
       760   254.62688     -932.3905      -571.29661      4338.6243    
       770   221.51554     -931.57879      75.128565      4336.2045    
       780   178.99048     -930.49053      635.82055      4333.8376    
       790   196.78725     -931.06842      765.39512      4332.0209    
       800   182.31798     -930.74127      904.34464      4330.9236    
       810   192.47817     -931.08758      917.13384      4330.6651    
       820   211.80022     -931.69344      757.94781      4331.2601    
       830   179.31031     -930.8555       585.98088      4332.5834    
       840   176.40197     -930.8243       162.19372      4334.4547    
       850   199.8452      -931.51895     -350.63821      4336.4936    
       860   193.49771     -931.38292     -646.64765      4338.2458    
       870   196.46975     -931.50298     -902.3101       4339.4089    
       880   202.51612     -931.70934     -1006.9187      4339.7451    
       890   188.77307     -931.36356     -742.43128      4339.1689    
       900   199.46124     -931.69314     -439.22266      4337.8915    
       910   214.86906     -932.1573      -218.52245      4336.1841    
       920   195.59194     -931.66208      119.8455       4334.2719    
       930   172.67402     -931.05881      443.00337      4332.459     
       940   160.19817     -930.7309       631.05487      4331.0398    
       950   154.83504     -930.5817       809.90977      4330.2077    
       960   176.41433     -931.16294      924.44729      4330.1305    
       970   201.71718     -931.83284      906.85933      4330.9196    
       980   198.82744     -931.71551      742.62044      4332.5694    
       990   193.49609     -931.53083      278.05402      4334.9226    
      1000   208.11246     -931.89765     -496.92376      4337.5454    
      1010   188.41633     -931.30993     -1099.9931      4339.7518    
      1020   175.76846     -930.91729     -1427.2415      4340.9688    
      1030   208.78101     -931.78396     -1456.9924      4340.8733    
      1040   206.85427     -931.67592     -962.10169      4339.4436    
      1050   175.70179     -930.76182     -201.00293      4337.1132    
      1060   211.80342     -931.71155      281.9853       4334.5425    
      1070   211.53092     -931.64402      738.8604       4332.2137    
      1080   165.35176     -930.31058      1162.5294      4330.5603    
      1090   198.04965     -931.16445      1137.0318      4329.95      
      1100   217.43559     -931.63469      962.78475      4330.401     
      1110   164.40311     -930.10191      850.15793      4331.7842    
      1120   188.78828     -930.72037      341.3346       4333.9607    
      1130   235.3295      -931.93268     -310.65601      4336.4874    
      1140   209.21006     -931.13714     -744.12762      4338.7839    
      1150   181.35906     -930.31097     -1077.5048      4340.4208    
      1160   185.51925     -930.37135     -1231.2717      4341.0778    
      1170   214.01232     -931.09795     -1045.8669      4340.6078    
      1180   243.39385     -931.8505      -588.66102      4339.1644    
      1190   221.25562     -931.19228     -34.69953       4337.156     
      1200   207.74746     -930.79278      298.64021      4335.0703    
      1210   206.12029     -930.7299       572.38149      4333.2369    
      1220   174.95732     -929.84547      953.74754      4331.9354    
      1230   209.11777     -930.77081      1019.9702      4331.4931    
      1240   254.52135     -932.01027      885.58774      4331.9999    
      1250   211.47791     -930.81623      777.4486       4333.3675    
      1260   202.09394     -930.56807      333.69355      4335.4747    
      1270   241.04117     -931.67289     -391.0254       4337.9177    
      1280   194.07937     -930.40281     -891.1599       4340.0636    
      1290   170.94986     -929.7883      -1362.6924      4341.406     
      1300   197.26863     -930.5406      -1610.3323      4341.4977    
      1310   192.29836     -930.41926     -1274.819       4340.1132    
      1320   203.03609     -930.73369     -589.87459      4337.522     
      1330   210.22452     -930.95109      324.94429      4334.347     
      1340   202.31794     -930.74955      1217.9166      4331.4285    
      1350   242.56869     -931.89741      1616.3577      4329.5718    
      1360   232.52623     -931.67581      1821.7726      4329.2059    
      1370   187.82735     -930.49722      1700.6195      4330.5437    
      1380   234.94987     -931.8766       721.69539      4333.4533    
      1390   234.28286     -931.95556     -372.83032      4337.1096    
      1400   155.80187     -929.85571     -1081.693       4340.5327    
      1410   190.64486     -930.88005     -1909.9755      4342.9861    
      1420   224.15699     -931.87922     -2306.1665      4343.7093    
      1430   154.12688     -929.99271     -1769.3079      4342.3348    
      1440   165.19521     -930.33564     -1061.2829      4339.2568    
      1450   216.08815     -931.77778     -209.67801      4335.12      
      1460   190.26151     -931.08584      1029.7182      4330.7408    
      1470   185.42922     -930.96979      2007.7707      4327.2304    
      1480   213.74199     -931.77422      2379.3028      4325.5031    
      1490   197.47657     -931.34492      2313.8271      4325.9671    
      1500   200.39863     -931.45227      1576.5065      4328.5845    
      1510   206.72336     -931.65678      468.32529      4332.734     
      1520   166.58206     -930.56298     -455.88086      4337.4512    
      1530   177.6266      -930.87538     -1396.1237      4341.8465    
      1540   240.76181     -932.63012     -2232.3541      4345.0221    
      1550   224.59451     -932.20053     -2370.8176      4346.2045    
      1560   181.1636      -931.02542     -2073.925       4345.1872    
      1570   188.49376     -931.25733     -1624.1022      4342.1791    
      1580   188.53573     -931.28054     -718.71486      4337.5999    
      1590   168.62609     -930.73778      450.98605      4332.2643    
      1600   173.03119     -930.85463      1441.0724      4327.2291    
      1610   182.10209     -931.08625      2311.818       4323.4461    
      1620   166.66211     -930.62599      2977.403       4321.759     
      1630   177.68638     -930.89231      2899.4584      4322.7926    
      1640   209.0307      -931.70873      2134.9442      4326.5463    
      1650   220.19722     -931.95886      999.51913      4332.3949    
      1660   222.49984     -931.96821     -503.62628      4339.3129    
      1670   225.15382     -931.99445     -2128.5357      4345.9144    
      1680   210.72207     -931.55726     -3408.9396      4350.6734    
      1690   191.45444     -930.99817     -4095.1623      4352.3284    
      1700   171.5589      -930.42826     -3811.8507      4350.1781    
      1710   153.2076      -929.89504     -2393.9555      4344.4311    
      1720   186.09525     -930.76217     -385.60593      4336.3285    
      1730   223.02961     -931.70852      1858.0348      4327.7199    
      1740   208.14767     -931.21059      3900.7464      4320.6934    
      1750   226.38233     -931.64822      4733.6764      4317.1152    
      1760   253.7768      -932.36564      4215.3859      4317.8237    
      1770   181.26311     -930.34061      3039.9996      4322.4889    
      1780   152.06706     -929.52088      1102.05        4330.0788    
      1790   207.95981     -931.03761     -1213.2377      4338.8575    
      1800   177.96648     -930.14676     -2750.4979      4346.7517    
      1810   171.30988     -929.90393     -3646.274       4352.2431    
      1820   264.85123     -932.43397     -4149.1717      4354.3859    
      1830   250.28951     -931.98724     -3614.3121      4352.6905    
      1840   184.38693     -930.15385     -2326.5685      4347.5718    
      1850   222.33269     -931.2099      -905.26975      4340.1498    
      1860   222.89895     -931.22609      936.38632      4331.783     
      1870   186.38755     -930.21144      2760.9472      4324.1688    
      1880   207.14152     -930.78672      3832.3532      4318.9737    
      1890   201.49718     -930.63438      4275.115       4317.2601    
      1900   204.54931     -930.73534      3858.9146      4319.4799    
      1910   232.86745     -931.55416      2502.9432      4325.3106    
      1920   198.11674     -930.62887      665.62463      4333.5926    
      1930   200.85207     -930.73736     -1511.5786      4342.6417    
      1940   228.8992      -931.55301     -3450.136       4350.443     
      1950   182.60854     -930.31257     -4440.8473      4355.1732    
      1960   188.95878     -930.54046     -4699.8781      4355.792     
      1970   217.02999     -931.39927     -4038.3409      4351.9997    
      1980   158.15246     -929.84522     -2118.9582      4344.4098    
      1990   185.34556     -930.66113      170.25003      4334.7327    
      2000   254.63008     -932.66469      2357.4206      4325.0883    
      2010   197.91789     -931.19115      4401.6607      4317.5471    
      2020   182.85213     -930.86782      5380.6848      4313.9642    
      2030   229.2843      -932.28905      4935.7634      4315.2735    
      2040   205.27098     -931.77663      3422.1225      4321.1652    
      2050   190.99772     -931.50923      979.90054      4330.3004    
      2060   182.06397     -931.35142     -1645.9164      4340.493     
      2070   143.61991     -930.31964     -3675.6896      4349.3274    
      2080   161.24895     -930.81462     -4935.6885      4354.8412    
      2090   182.89411     -931.41474     -4999.236       4355.8116    
      2100   177.5647      -931.26645     -3860.6706      4352.1227    
      2110   222.35682     -932.51158     -2154.082       4344.7629    
      2120   220.38377     -932.45896      23.691302      4335.3344    
      2130   158.95872     -930.74496      2305.702       4325.8648    
      2140   183.45483     -931.40229      3797.158       4318.4217    
      2150   200.71245     -931.85028      4612.0299      4314.4297    
      2160   172.58914     -931.04594      4743.9554      4314.6761    
      2170   195.75802     -931.6733       3672.9597      4319.2781    
      2180   198.09383     -931.71559      1734.4381      4327.3194    
      2190   166.81762     -930.81383     -539.23075      4337.0686    
      2200   188.68703     -931.3681      -2843.0875      4346.4136    
      2210   187.49801     -931.26302     -4378.5959      4353.2208    
      2220   164.3851      -930.55453     -4809.3595      4356.015     
      2230   213.87371     -931.86541     -4415.872       4354.3124    
      2240   230.33329     -932.25951     -2998.3356      4348.4805    
      2250   171.18525     -930.5703      -756.06247      4339.8425    
      2260   197.82499     -931.25883      1264.9192      4330.4236    
      2270   241.05703     -932.38953      2965.5329      4322.1282    
      2280   188.01566     -930.86169      4380.39        4316.5599    
      2290   154.09835     -929.88215      4760.9296      4314.9809    
      2300   204.66072     -931.24776      3928.6792      4317.7522    
      2310   210.44268     -931.36379      2543.4547      4324.1941    
      2320   188.26399     -930.70992      640.35504      4333.0443    
      2330   204.07429     -931.10168     -1683.7074      4342.5395    
      2340   203.48999     -931.02757     -3593.8029      4350.5519    
      2350   184.72765     -930.45404     -4580.5437      4355.285     
      2360   212.40201     -931.181       -4686.2632      4355.7567    
      2370   224.50027     -931.48861     -3741.61        4351.8615    
      2380   200.49075     -930.80988     -1971.8367      4344.4687    
      2390   193.51754     -930.60183      173.39746      4335.221     
      2400   210.41311     -931.04343      2349.5303      4326.1208    
      2410   222.36147     -931.34448      4061.0255      4319.1726    
      2420   232.53304     -931.61623      4760.404       4315.9276    
      2430   208.19984     -930.95722      4463.4621      4317.0505    
      2440   190.37134     -930.49138      3184.8739      4322.2853    
      2450   211.18521     -931.09776      1083.1628      4330.4762    
      2460   194.1661      -930.64437     -1113.9361      4339.7357    
      2470   166.06363     -929.86485     -2994.354       4348.0262    
      2480   209.44959     -931.06154     -4418.8845      4353.5533    
      2490   218.53403     -931.31543     -4688.2945      4355.0033    
      2500   177.65734     -930.19682     -3745.0097      4352.1055    
      2510   209.38307     -931.09651     -2267.9225      4345.6905    
      2520   246.24801     -932.14456     -364.01932      4337.1587    
      2530   184.88516     -930.46872      1911.5548      4328.3172    
      2540   180.74912     -930.37118      3569.8039      4321.2149    
      2550   236.44641     -931.94708      4266.6618      4317.3715    
      2560   211.54265     -931.31637      4282.1275      4317.4655    
      2570   191.02276     -930.82657      3329.061       4321.4932    
      2580   223.19239     -931.82287      1483.6562      4328.5884    
      2590   200.95342     -931.32462     -498.40505      4337.1077    
      2600   171.06047     -930.59521     -2343.962       4345.2079    
      2610   183.28644     -931.02242     -3789.7345      4351.1529    
      2620   179.20916     -930.99227     -4346.3424      4353.5966    
      2630   182.43007     -931.15777     -3997.1892      4351.9946    
      2640   204.45986     -931.84768     -2828.3095      4346.6673    
      2650   184.13299     -931.34929     -895.3206       4338.7311    
      2660   179.63576     -931.2637       1143.5914      4329.9631    
      2670   197.13869     -931.77097      2846.1916      4322.2482    
      2680   182.71527     -931.38075      4029.6152      4317.1634    
      2690   184.59197     -931.44144      4269.7867      4315.7672    
      2700   184.40637     -931.44671      3688.8104      4318.2959    
      2710   157.40651     -930.7          2594.4734      4324.25      
      2720   201.71628     -931.91994      743.28625      4332.598     
      2730   248.18397     -933.18721     -1446.2646      4341.6505    
      2740   193.10896     -931.64254     -3185.5287      4349.41      
      2750   167.11553     -930.9075      -4428.078       4354.2103    
      2760   183.68478     -931.35313     -4842.0022      4354.8814    
      2770   159.00878     -930.65214     -3958.6585      4351.0681    
      2780   179.93112     -931.21151     -2220.4447      4343.575     
      2790   214.72893     -932.13396      32.715368      4334.0385    
      2800   183.69884     -931.21631      2458.6056      4324.5703    
      2810   186.98788     -931.24958      4148.4899      4317.3616    
      2820   204.77438     -931.6854       4822.0756      4313.9553    
      2830   155.64377     -930.27637      4637.1551      4314.9871    
      2840   166.35131     -930.53886      3298.3592      4320.2582    
      2850   223.15272     -932.06088      1263.0678      4328.574     
      2860   197.45154     -931.28633     -637.7348       4338.1171    
      2870   187.07068     -930.94418     -2521.9719      4347.083     
      2880   224.25719     -931.92009     -4171.4811      4353.6955    
      2890   213.08924     -931.56979     -4791.9408      4356.4448    
      2900   188.69245     -930.87748     -4275.8134      4354.7399    
      2910   210.96285     -931.4921      -2991.0098      4349.0443    
      2920   223.69506     -931.84475     -1108.6316      4340.584     
      2930   210.13014     -931.46898      988.25422      4331.123     
      2940   189.81416     -930.90062      2836.749       4322.5995    
      2950   166.8095      -930.24762      4107.9643      4316.7096    
      2960   175.37225     -930.46695      4438.0455      4314.5901    
      2970   180.17029     -930.58038      3930.0963      4316.5483    
      2980   154.14415     -929.83443      2842.4514      4322.1372    
      2990   184.82128     -930.64979      1141.2337      4330.3468    
      3000   257.51107     -932.60671     -850.75226      4339.6185    
      3010   240.14921     -932.07509     -2513.4011      4348.1334    
      3020   200.45741     -930.94949     -3857.8027      4354.3043    
      3030   235.7733      -931.9247      -4764.2838      4356.8488    
      3040   218.86281     -931.47679     -4461.6852      4354.9732    
      3050   158.11049     -929.81892     -3055.3528      4348.9664    
      3060   191.8633      -930.77354     -1254.7321      4340.118     
      3070   215.08551     -931.41839      995.24445      4330.1622    
      3080   184.9916      -930.57017      3302.8166      4321.1895    
      3090   213.11565     -931.33658      4724.201       4315.2637    
      3100   228.61807     -931.76938      5064.465       4313.6761    
      3110   175.40789     -930.31384      4372.4795      4316.7362    
      3120   173.79303     -930.29042      2587.1726      4323.7909    
      3130   204.65822     -931.1517       331.99472      4333.2381    
      3140   203.37142     -931.10404     -1817.7088      4343.0151    
      3150   202.5785      -931.06419     -3611.5085      4351.1054    
      3160   197.49659     -930.9069      -4600.1326      4355.8388    
      3170   204.75283     -931.10211     -4704.7269      4356.2752    
      3180   229.30713     -931.7957      -3977.2999      4352.3161    
      3190   195.63997     -930.88621     -2156.5742      4344.7034    
      3200   177.00959     -930.38499      181.95402      4335.1362    
      3210   218.41144     -931.5362       2282.5338      4325.7667    
      3220   211.70185     -931.35071      4066.628       4318.5592    
      3230   194.86467     -930.89631      4978.0149      4315.1113    
      3240   232.90873     -931.99363      4451.8091      4316.1978    
      3250   208.64319     -931.3943       3074.5458      4321.3749    
      3260   147.81566     -929.77316      1237.2732      4329.3922    
      3270   173.76927     -930.54029     -1023.8921      4338.5292    
      3280   204.42389     -931.42963     -2885.6423      4346.7301    
      3290   190.35419     -931.07753     -3855.5395      4352.2712    
      3300   211.6091      -931.71839     -4250.2552      4354.1954    
      3310   223.14348     -932.11782     -3905.011       4352.15      
      3320   176.43341     -930.9069      -2594.6257      4346.5043    
      3330   174.31943     -930.9157      -894.51317      4338.4691    
      3340   198.19263     -931.63493      962.61907      4329.6491    
      3350   167.42408     -930.81712      2943.9098      4321.7963    
      3360   172.34853     -930.9718       4234.7125      4316.6776    
      3370   217.62182     -932.25227      4482.5725      4315.445     
      3380   191.51439     -931.563        3993.2318      4318.3445    
      3390   176.89748     -931.19161      2525.6473      4324.8907    
      3400   222.82348     -932.49504      317.5786       4333.7341    
      3410   206.43044     -932.06307     -1728.4328      4342.8866    
      3420   168.62767     -931.02545     -3499.1067      4350.419     
      3430   188.11636     -931.5725      -4844.2044      4354.6553    
      3440   168.40116     -931.03173     -4895.5548      4354.3992    
      3450   139.13944     -930.22138     -3702.8416      4349.614     
      3460   187.85028     -931.55847     -1896.3071      4341.402     
      3470   192.59602     -931.6405       613.96058      4331.5191    
      3480   172.19352     -931.00454      3153.4646      4322.2823    
      3490   223.81129     -932.3512       4658.4542      4315.9616    
      3500   233.62735     -932.53758      5137.0493      4313.9375    
      3510   181.28003     -931.03299      4540.4677      4316.6268    
      3520   185.19705     -931.10473      2607.2129      4323.4336    
      3530   179.23015     -930.88207      251.10944      4332.6354    
      3540   166.81898     -930.46343     -1843.3702      4342.0799    
      3550   212.27444     -931.63085     -3588.2004      4349.7891    
      3560   206.97542     -931.38535     -4377.6714      4354.1628    
      3570   168.80878     -930.25685     -4150.1223      4354.4624    
      3580   227.49418     -931.83101     -3465.4452      4350.8667    
      3590   247.08585     -932.32889     -2003.6962      4344.0871    
      3600   173.69538     -930.26676      123.34998      4335.5294    
      3610   196.12808     -930.86352      1809.686       4327.1089    
      3620   226.69417     -931.67967      3132.422       4320.4126    
      3630   147.30268     -929.44817      4334.5673      4316.6821    
      3640   159.48723     -929.76402      4409.2029      4316.9188    
      3650   256.98166     -932.44072      3271.9066      4321.1665    
      3660   227.00372     -931.59482      1831.5838      4328.4438    
      3670   181.95107     -930.34403     -82.331749      4337.3819    
      3680   231.30801     -931.70677     -2391.3744      4346.1819    
      3690   228.57245     -931.62719     -3992.1571      4352.7596    
      3700   185.65775     -930.44656     -4618.9559      4355.6155    
      3710   191.60432     -930.63114     -4478.5991      4354.1445    
      3720   193.1418      -930.69683     -3321.8316      4348.5326    
      3730   178.29246     -930.29935     -1256.2526      4339.9054    
      3740   188.11077     -930.56736      1123.6169      4330.1913    
      3750   206.3191      -931.04863      3321.4087      4321.5969    
      3760   233.7939      -931.79014      4747.4571      4316.1061    
      3770   233.62028     -931.79202      5128.4739      4314.9936    
      3780   216.62741     -931.36013      4324.3085      4318.5713    
      3790   209.30878     -931.21255      2409.504       4326.0813    
      3800   197.05456     -930.92343     -119.91657      4335.7715    
      3810   177.4759      -930.40915     -2531.3414      4345.3259    
      3820   195.71136     -930.9317      -4319.6698      4352.502     
      3830   198.72443     -931.03677     -4978.5619      4355.6504    
      3840   174.96906     -930.40636     -4399.0753      4354.1714    
      3850   189.54342     -930.84095     -2969.9507      4348.6154    
      3860   215.4541      -931.58676     -1092.5072      4340.3437    
      3870   206.23256     -931.35351      920.54935      4331.1337    
      3880   188.00744     -930.86422      2774.6916      4322.8586    
      3890   177.81399     -930.5896       4173.2719      4317.2112    
      3900   199.37078     -931.19819      4694.8713      4315.4251    
      3910   231.90681     -932.1298       4179.9618      4317.94      
      3920   225.28799     -932.00263      2798.1694      4324.2723    
      3930   208.02364     -931.59627      695.43648      4333.1347    
      3940   201.17993     -931.48327     -1726.5995      4342.5824    
      3950   167.16672     -930.60591     -3679.1528      4350.3978    
      3960   159.1688      -930.4378      -4784.3836      4354.7618    
      3970   188.08623     -931.30438     -4842.3067      4354.6561    
      3980   189.28381     -931.41421     -3694.7059      4350.0761    
      3990   189.21399     -931.48823     -1736.9113      4342.1217    
      4000   192.59913     -931.64971      482.9019       4332.636     
      4010   172.5897      -931.14117      2568.7731      4323.6921    
      4020   177.69376     -931.3141       4005.704       4317.1814    
      4030   190.92846     -931.71324      4609.4962      4314.3926    
      4040   178.68185     -931.40919      4381.1319      4315.8492    
      4050   187.26706     -931.6847       3189.5554      4321.2974    
      4060   207.29849     -932.27536      1238.2363      4329.6288    
      4070   189.86791     -931.81589     -944.98024      4339.0562    
      4080   171.89329     -931.32442     -2949.6721      4347.5539    
      4090   181.47221     -931.58537     -4330.1394      4353.2651    
      4100   191.888       -931.86868     -4749.4498      4354.9222    
      4110   184.0996      -931.65218     -4157.1026      4352.161     
      4120   170.23567     -931.26347     -2649.0848      4345.5817    
      4130   179.51709     -931.49701     -550.54614      4336.6306    
      4140   192.02831     -931.78711      1673.9136      4327.276     
      4150   177.83753     -931.30916      3529.1935      4319.562     
      4160   178.56432     -931.23105      4515.3252      4315.1466    
      4170   198.37703     -931.66697      4514.0255      4314.8921    
      4180   180.358       -931.05091      3727.9408      4318.7786    
      4190   175.69768     -930.81797      2098.3996      4326.0418    
      4200   206.54747     -931.55952     -82.513519      4335.1707    
      4210   199.95891     -931.26116     -2084.887       4344.1765    
      4220   179.34563     -930.59641     -3582.6059      4351.1964    
      4230   216.8124      -931.56063     -4531.3172      4354.8205    
      4240   225.53177     -931.74861     -4425.3212      4354.2201    
      4250   178.39351     -930.41557     -3147.9294      4349.5503    
      4260   199.63163     -930.98625     -1362.4366      4342.0099    
      4270   253.43797     -932.45429      587.72676      4333.296     
      4280   221.36515     -931.5513       2565.1227      4325.2468    
      4290   173.49616     -930.21661      3900.8404      4319.6373    
      4300   191.8736      -930.72225      4068.7235      4317.6254    
      4310   196.21828     -930.83965      3413.1323      4319.3567    
      4320   176.28888     -930.28334      2251.8142      4324.2133    
      4330   183.31574     -930.46544      722.97535      4331.1027    
      4340   207.73512     -931.11407     -905.05314      4338.6067    
      4350   211.66024     -931.18699     -2283.0808      4345.222     
      4360   194.39486     -930.67541     -3160.8172      4349.675     
      4370   200.98806     -930.831       -3468.452       4351.1561    
      4380   232.95203     -931.69881     -3093.6356      4349.4101    
      4390   221.21725     -931.36943     -1908.6316      4344.8429    
      4400   199.07253     -930.76015     -373.59975      4338.5684    
      4410   223.96167     -931.45742      976.32328      4332.0063    
      4420   233.46846     -931.73833      2106.9689      4326.4227    
      4430   198.09815     -930.78649      2929.8875      4322.8518    
      4440   185.01011     -930.45733      3032.429       4321.9935    
      4450   184.94977     -930.48805      2491.0048      4323.9224    
      4460   191.46204     -930.69739      1551.6067      4328.1286    
      4470   206.2749      -931.13416      376.37454      4333.7335    
      4480   211.94302     -931.31799     -947.33531      4339.6345    
      4490   201.98454     -931.07087     -2188.6253      4344.6047    
      4500   185.57334     -930.64519     -2992.1799      4347.5103    
      4510   177.26724     -930.4411      -3089.3949      4347.6317    
      4520   195.69223     -930.97848     -2443.5361      4344.9069    
      4530   199.12313     -931.09828     -1106.7887      4339.9769    
      4540   199.32871     -931.12357      529.25124      4334.095     
      4550   234.71903     -932.13031      1854.185       4328.7548    
      4560   229.23429     -932.02405      2655.4705      4325.1708    
      4570   195.40595     -931.14584      2790.9064      4324.0545    
      4580   203.8694      -931.45196      2248.1811      4325.5008    
      4590   192.84138     -931.22258      1350.1421      4329.0107    
      4600   174.07757     -930.76749      143.85628      4333.7303    
      4610   186.5998      -931.17        -1117.3681      4338.5422    
      4620   177.8704      -930.97306     -1942.0218      4342.3042    
      4630   169.60466     -930.77504     -2304.272       4344.2487    
      4640   201.85767     -931.70005     -2280.9583      4344.0401    
      4650   182.76047     -931.19675     -1602.1846      4341.7508    
      4660   173.56276     -930.95834     -632.43202      4338.0083    
      4670   217.96679     -932.20212      326.43455      4333.7148    
      4680   212.26112     -932.05667      1324.6752      4329.7849    
      4690   190.07489     -931.45845      1897.2081      4327.1044    
      4700   187.38447     -931.40246      1885.1832      4326.1781    
      4710   160.42623     -930.66356      1647.7588      4327.0103    
      4720   176.8543      -931.11708      1088.6058      4329.3511    
      4730   208.77067     -931.98691      358.65835      4332.6795    
      4740   180.91046     -931.18768     -234.90849      4336.336     
      4750   202.35283     -931.75039     -996.65364      4339.7301    
      4760   227.84437     -932.41351     -1622.1524      4342.1744    
      4770   162.17156     -930.54545     -1678.0993      4343.1305    
      4780   182.10823     -931.04996     -1754.4676      4342.4983    
      4790   236.97184     -932.48855     -1576.1987      4340.2464    
      4800   160.4831      -930.27533     -541.80925      4336.6182    
      4810   141.32653     -929.66603      553.79702      4332.5247    
      4820   225.2751      -931.86937      1352.4362      4328.9658    
      4830   216.53392     -931.47482      2199.0483      4326.7214    
      4840   204.45463     -931.03109      2357.5865      4326.4999    
      4850   241.63075     -931.97586      1623.0083      4328.4121    
      4860   196.39404     -930.65823      813.76811      4331.8318    
      4870   156.07517     -929.4972      -85.457169      4335.9858    
      4880   206.91989     -930.85951     -1148.3768      4340.0145    
      4890   222.38363     -931.23202     -1696.7191      4342.9838    
      4900   212.39993     -930.9165      -1789.4622      4344.3766    
      4910   231.05091     -931.41315     -1734.7474      4344.0887    
      4920   225.03184     -931.2425      -1334.4686      4342.2073    
      4930   205.84289     -930.71958     -709.46637      4339.1134    
      4940   209.2869      -930.83095     -53.020192      4335.3869    
      4950   193.03272     -930.39371      852.0909       4331.6742    
      4960   201.96888     -930.65293      1607.3757      4328.7855    
      4970   226.08497     -931.34034      1897.14        4327.3901    
      4980   190.68162     -930.38296      1943.5117      4327.7694    
      4990   182.13691     -930.16743      1428.7197      4329.9229    
      5000   233.45382     -931.61593      309.32231      4333.3497    
      5010   210.71856     -931.01894     -522.24341      4337.0749    
      5020   163.67792     -929.74061     -941.74408      4340.326     
      5030   219.30392     -931.3091      -1501.095       4342.6559    
      5040   248.59376     -932.16336     -1720.936       4343.5912    
      5050   205.41321     -931.02631     -1399.579       4342.9543    
      5060   206.9998      -931.13803     -1134.3758      4341.0032    
      5070   216.69979     -931.48623     -781.40206      4338.0144    
      5080   177.78038     -930.47964      12.643475      4334.362     
      5090   168.20641     -930.2661       864.12342      4330.7609    
      5100   195.90117     -931.07743      1506.4048      4327.9853    
      5110   197.69125     -931.16589      1940.6424      4326.6307    
      5120   195.29975     -931.13703      1920.0057      4327.0681    
      5130   202.44123     -931.37264      1442.3802      4329.2659    
      5140   204.25531     -931.46044      699.38858      4332.7844    
      5150   210.76424     -931.67889     -271.03297      4336.9233    
      5160   221.03023     -932.00795     -1274.8339      4340.783     
      5170   197.93012     -931.41499     -1893.948       4343.4576    
      5180   172.2009      -930.74037     -2138.8971      4344.3662    
      5190   178.78554     -930.95221     -2067.2341      4343.2831    
      5200   180.8466      -931.02907     -1497.9074      4340.3084    
      5210   168.62492     -930.69601     -491.81329      4335.9911    
      5220   180.42737     -931.01519      651.83951      4331.2621    
      5230   198.2462      -931.48791      1800.2676      4327.1887    
      5240   208.379       -931.74423      2573.8505      4324.8061    
      5250   216.32319     -931.94809      2583.8827      4324.7874    
      5260   204.09711     -931.60292      1969.9592      4327.1388    
      5270   186.48675     -931.11072      968.44941      4331.2939    
      5280   195.3621      -931.34819     -308.80043      4336.3128    
      5290   190.34986     -931.19071     -1459.1738      4341.0286    
      5300   188.05308     -931.10303     -2235.1762      4344.3777    
      5310   201.2952      -931.4435      -2473.5905      4345.647     
      5320   187.96969     -931.04457     -2057.4558      4344.6369    
      5330   194.97946     -931.20763     -1352.68        4341.7248    
      5340   223.99653     -931.97477     -563.55292      4337.5737    
      5350   187.20769     -930.91309      448.43546      4332.9539    
      5360   169.30754     -930.37251      1309.9172      4328.7841    
      5370   210.33117     -931.44621      1824.8413      4325.846     
      5380   181.16866     -930.54971      2300.1774      4324.6408    
      5390   157.72929     -929.81003      2341.2005      4325.5625    
      5400   224.57978     -931.53406      1656.0101      4328.6087    
      5410   245.15749     -931.92715      755.4315       4333.1783    
      5420   213.9226      -930.91397     -252.93848      4338.429     
      5430   224.47314     -931.0941      -1451.5009      4343.3998    
      5440   233.99853     -931.2675      -2412.8719      4346.9994    
      5450   223.78291     -930.92963     -2820.4667      4348.3519    
      5460   214.32152     -930.64386     -2600.8979      4347.0894    
      5470   191.38384     -929.99743     -1741.1094      4343.445     
      5480   211.12299     -930.53984     -681.86735      4338.2101    
      5490   213.0462      -930.58933      569.13341      4332.4004    
      5500   177.10474     -929.58436      1949.0016      4327.1917    
      5510   217.0838      -930.68498      2827.218       4323.8098    
      5520   255.28832     -931.75152      3075.6921      4323.047     
      5530   199.43092     -930.2299       2784.6876      4325.1278    
      5540   196.05406     -930.16831      1562.3377      4329.7242    
      5550   230.17147     -931.14899     -96.327598      4335.7245    
      5560   196.74667     -930.2539      -1373.1345      4341.6396    
      5570   196.70584     -930.27997     -2363.3257      4346.2519    
      5580   241.12147     -931.55044     -2948.4644      4348.6406    
      5590   230.08231     -931.30557     -2677.6071      4348.3096    
      5600   216.83938     -931.01452     -1903.0775      4345.503     
      5610   232.14053     -931.53017     -1022.761       4340.9403    
      5620   206.85885     -930.92493      81.229637      4335.4829    
      5630   168.6453      -929.93537      1247.0558      4330.1628    
      5640   185.21141     -930.44477      2103.351       4326.0344    
      5650   216.68367     -931.36518      2626.331       4323.8856    
      5660   223.54548     -931.61345      2645.4671      4324.1701    
      5670   204.93518     -931.16201      2057.0783      4326.879     
      5680   187.06867     -930.7236       961.89723      4331.4568    
      5690   184.83393     -930.70321     -451.5314       4336.8833    
      5700   192.16474     -930.93537     -1777.1606      4341.8582    
      5710   180.83615     -930.63912     -2431.9711      4345.1869    
      5720   186.10794     -930.79612     -2477.8448      4346.2538    
      5730   224.12344     -931.86408     -2179.6554      4345.0079    
      5740   218.82576     -931.74074     -1352.449       4341.7723    
      5750   190.71544     -930.98674     -230.93211      4337.3281    
      5760   215.62446     -931.70419      646.23672      4332.692     
      5770   212.60129     -931.65193      1469.5984      4328.7084    
      5780   166.78821     -930.40564      2211.5955      4326.1389    
      5790   193.25967     -931.15977      2270.8487      4325.6033    
      5800   215.5167      -931.79812      1858.0979      4327.16      
      5810   192.66974     -931.18643      1209.2624      4330.4302    
      5820   213.56565     -931.79217      92.446592      4334.7697    
      5830   199.98031     -931.44284     -1052.8501      4339.1651    
      5840   146.342       -929.96844     -1864.455       4342.5703    
      5850   177.70357     -930.84077     -2452.3186      4344.2111    
      5860   200.36875     -931.46104     -2342.4487      4343.5916    
      5870   161.73922     -930.37285     -1414.1876      4340.8516    
      5880   195.87164     -931.29489     -401.33116      4336.8193    
      5890   225.79482     -932.08249      660.6591       4332.4638    
      5900   184.95278     -930.90551      1743.9452      4328.7844    
      5910   201.66959     -931.32713      2242.5534      4326.7284    
      5920   243.62195     -932.44122      2166.0499      4326.7454    
      5930   216.87469     -931.66035      1783.9052      4328.7694    
      5940   196.09572     -931.05902      898.71604      4332.405     
      5950   201.42105     -931.17727     -314.27546      4336.8258    
      5960   195.73732     -930.9795      -1375.5158      4340.9291    
      5970   192.98297     -930.85497     -2112.7777      4343.7315    
      5980   183.60535     -930.53614     -2425.0307      4344.5577    
      5990   171.75614     -930.13729     -2150.5794      4343.1477    
      6000   178.44342     -930.23322     -1222.1008      4339.7914    
      6010   192.96701     -930.51903      169.4118       4335.3747    
      6020   237.4431      -931.61458      1363.2996      4331.1593    
      6030   262.96865     -932.19112      2053.948       4328.2357    
      6040   221.24707     -930.95207      2256.4249      4327.2331    
      6050   188.01847     -929.98553      1903.2347      4328.3095    
      6060   217.98926     -930.7821       1054.0431      4331.1128    
      6070   216.32602     -930.7048       203.13677      4334.8768    
      6080   195.39262     -930.10218     -562.0509       4338.8016    
      6090   229.21869     -931.02496     -1345.4272      4342.1551    
      6100   249.78247     -931.5955      -1810.7765      4344.2383    
      6110   215.64952     -930.67321     -1821.246       4344.6395    
      6120   191.02924     -930.02101     -1604.8365      4343.349     
      6130   208.62708     -930.54075     -1201.4967      4340.5896    
      6140   213.56535     -930.7118      -381.96466      4336.7845    
      6150   199.70264     -930.36174      719.8026       4332.7074    
      6160   201.23532     -930.43538      1636.0095      4329.3542    
      6170   229.9434      -931.27047      1968.3584      4327.5329    
      6180   228.13053     -931.27767      1843.3535      4327.5417    
      6190   190.30776     -930.28996      1489.7112      4329.2573    
      6200   193.69337     -930.43817      836.36344      4332.3179    
      6210   220.7239      -931.24383     -17.768315      4336.1045    
      6220   209.93095     -931.00357     -793.69936      4339.8334    
      6230   201.15072     -930.81504     -1479.7735      4342.7776    
      6240   227.01219     -931.59412     -2033.1496      4344.3038    
      6250   209.45025     -931.17622     -2036.9918      4343.9519    
      6260   178.75885     -930.38239     -1537.2894      4341.7435    
      6270   196.26253     -930.91423     -768.69864      4338.1593    
      6280   207.92485     -931.2772       290.27821      4333.9499    
      6290   199.82416     -931.08533      1389.6884      4330.0975    
      6300   206.74661     -931.30726      2045.8753      4327.5776    
      6310   212.13637     -931.48938      2117.6641      4326.9643    
      6320   196.81543     -931.09765      1716.0375      4328.3       
      6330   190.9077      -930.96141      902.93591      4331.1811    
      6340   204.037       -931.34792     -115.73         4334.8405    
      6350   191.0531      -931.00445     -935.38939      4338.3491    
      6360   162.09357     -930.20593     -1395.3888      4340.9558    
      6370   183.38955     -930.79072     -1620.7976      4342.2315    
      6380   218.96225     -931.7656      -1525.7192      4341.9976    
      6390   209.77842     -931.5038      -1043.7019      4340.381     
      6400   206.02549     -931.4004      -408.31426      4337.8405    
      6410   215.79089     -931.67751      229.92714      4334.9775    
      6420   194.31479     -931.08929      796.69165      4332.3901    
      6430   196.93635     -931.16956      1084.988       4330.5802    
      6440   203.75455     -931.3668       1196.3938      4329.8087    
      6450   166.96333     -930.34811      1156.8832      4330.1608    
      6460   180.74285     -930.72449      729.61629      4331.5524    
      6470   217.92645     -931.74149      233.84636      4333.593     
      6480   194.29646     -931.06974     -52.834256      4335.8346    
      6490   198.91521     -931.18472     -474.18221      4337.9722    
      6500   226.19068     -931.92943     -919.20711      4339.6249    
      6510   198.85946     -931.16506     -1059.7206      4340.4176    
      6520   185.25202     -930.78512     -1070.351       4340.2185    
      6530   193.31075     -931.00188     -924.47619      4339.0431    
      6540   184.48918     -930.74199     -532.45074      4337.0595    
      6550   200.01973     -931.15196     -37.340927      4334.6372    
      6560   196.64111     -931.02854      675.02893      4332.2616    
      6570   185.76544     -930.69032      1319.1467      4330.5713    
      6580   234.29927     -931.99332      1396.413       4330.1018    
      6590   223.82438     -931.65707      1202.8565      4330.9274    
      6600   178.0343      -930.35072      715.74984      4332.8358    
      6610   214.44707     -931.3196      -165.34463      4335.335     
      6620   209.55624     -931.12455     -719.36341      4337.6579    
      6630   161.67225     -929.73507     -864.19071      4339.2983    
      6640   204.97115     -930.86077     -1034.084       4340.093     
      6650   234.14319     -931.55781     -856.8608       4339.9413    
      6660   211.61895     -930.8264      -397.51324      4339.0267    
      6670   229.28839     -931.22317     -199.35558      4337.7452    
      6680   225.48575     -931.03096     -37.758018      4336.3136    
      6690   203.65489     -930.3579       238.1097       4334.8982    
      6700   218.89727     -930.72433      481.0717       4333.7393    
      6710   210.42279     -930.43763      767.09113      4333.0678    
      6720   212.40643     -930.45284      766.19906      4333.1075    
      6730   222.16258     -930.6924       442.07246      4333.8367    
      6740   186.36777     -929.67439      177.01665      4334.9745    
      6750   203.8979      -930.13916     -174.98962      4336.2471    
      6760   233.52269     -930.93995     -424.25228      4337.3405    
      6770   194.41728     -929.84176     -292.0948       4338.0541    
      6780   219.83505     -930.54161     -213.85414      4338.4798    
      6790   286.13217     -932.39694     -307.60889      4338.6866    
      6800   240.56875     -931.19382     -196.94929      4338.6304    
      6810   195.12453     -930.00786     -149.82374      4338.3935    
      6820   220.15501     -930.78505     -328.54465      4338.0078    
      6830   225.32736     -931.02746     -397.73492      4337.3408    
      6840   212.33788     -930.77293     -245.47101      4336.3424    
      6850   199.76961     -930.52469      55.225201      4335.1559    
      6860   188.33416     -930.28902      328.3336       4334.0512    
      6870   193.55487     -930.49959      431.36868      4333.2669    
      6880   181.70115     -930.21806      505.04375      4332.9055    
      6890   189.36234     -930.4606       504.96287      4333.0212    
      6900   232.19335     -931.67847      410.68393      4333.6009    
      6910   219.0707      -931.35114      414.85192      4334.5681    
      6920   198.42047     -930.81283      217.18427      4335.8925    
      6930   233.94979     -931.83845     -312.04627      4337.3679    
      6940   214.87405     -931.35621     -585.36348      4338.5534    
      6950   184.4091      -930.55061     -702.40409      4339.1885    
      6960   211.59652     -931.34213     -903.44349      4339.1495    
      6970   194.79366     -930.91036     -718.09732      4338.3075    
      6980   175.68907     -930.40318     -253.13169      4336.8416    
      6990   229.53973     -931.92011      67.511843      4335.158     
      7000   225.41249     -931.83918      485.68602      4333.5869    
      7010   177.04281     -930.53025      805.6052       4332.4992    
      7020   199.56847     -931.18546      596.69403      4332.1401    
      7030   187.90322     -930.88717      417.4661       4332.3539    
      7040   148.33458     -929.7991       399.7398       4332.9739    
      7050   193.51736     -931.05103      140.82042      4333.9363    
      7060   222.567       -931.84678      17.466145      4335.0314    
      7070   193.3128      -931.02842      87.381813      4336.1499    
      7080   214.85084     -931.62535     -202.61083      4337.3041    
      7090   225.94874     -931.9395      -538.93426      4338.2532    
      7100   188.84981     -930.92302     -640.36907      4338.7116    
      7110   195.61003     -931.12481     -819.64102      4338.5594    
      7120   203.19946     -931.34892     -772.33172      4337.6667    
      7130   173.39246     -930.53078     -226.84768      4336.1149    
      7140   182.07022     -930.77172      332.52401      4334.381     
      7150   223.77365     -931.92296      648.49589      4332.9683    
      7160   222.82263     -931.89707      903.87041      4332.1871    
      7170   203.81672     -931.38387      868.30095      4332.2432    
      7180   185.15151     -930.88343      514.55905      4333.0885    
      7190   175.37845     -930.62269      117.33089      4334.406     
      7200   194.1802      -931.14716     -278.69687      4335.8201    
      7210   199.02329     -931.27889     -590.22402      4336.9664    
      7220   173.15452     -930.5532      -670.40581      4337.5705    
      7230   176.47093     -930.6273      -640.92569      4337.553     
      7240   208.22074     -931.47542     -524.86643      4336.9454    
      7250   195.23821     -931.071       -72.136798      4335.8906    
      7260   191.54943     -930.92023      388.04068      4334.7878    
      7270   240.68558     -932.22446      539.58239      4334.0404    
      7280   242.42372     -932.21694      660.09886      4333.8125    
      7290   185.92374     -930.61324      700.99928      4334.2092    
      7300   211.59299     -931.29616      153.08753      4335.21      
      7310   224.53292     -931.62077     -371.31583      4336.3522    
      7320   163.03078     -929.8835      -433.68408      4337.1821    
      7330   177.70832     -930.2563      -563.1165       4337.5927    
      7340   228.83257     -931.61825     -633.79567      4337.4794    
      7350   195.27373     -930.62651     -270.47255      4336.8194    
      7360   189.48925     -930.41381     -8.4716115      4335.9081    
      7370   222.56807     -931.2702       44.779808      4334.9849    
      7380   192.76321     -930.38042      269.8914       4334.1359    
      7390   182.52376     -930.04041      502.47542      4333.5535    
      7400   221.82053     -931.06508      637.19012      4333.4435    
      7410   230.31711     -931.23342      714.31233      4333.9358    
      7420   236.12494     -931.34748      465.15115      4335.0713    
      7430   228.83048     -931.11921      50.185222      4336.6274    
      7440   208.14262     -930.5356      -323.67778      4338.2295    
      7450   217.8565      -930.80583     -686.72917      4339.5203    
      7460   211.24179     -930.63091     -836.43498      4340.1799    
      7470   201.81904     -930.38236     -794.59595      4340.0718    
      7480   245.65514     -931.62663     -769.20222      4339.2183    
      7490   218.38955     -930.91983     -389.79289      4337.6878    
      7500   166.76931     -929.5337       95.701067      4335.8195    
      7510   208.65554     -930.74075      239.24018      4334.0286    
      7520   220.93586     -931.13813      451.10009      4332.4883    
      7530   177.10169     -929.97751      850.96269      4331.4057    
      7540   194.17275     -930.50423      1037.6656      4331.1124    
      7550   205.50214     -930.87545      1085.0932      4331.7896    
      7560   209.26032     -931.04118      842.232        4333.463     
      7570   247.08183     -932.17675      180.01203      4335.8865    
      7580   224.01463     -931.65036     -444.80701      4338.4787    
      7590   190.03838     -930.81327     -1008.1576      4340.6509    
      7600   210.79165     -931.49154     -1563.901       4341.8653    
      7610   191.22622     -931.04364     -1608.9189      4341.6505    
      7620   166.83186     -930.43103     -1201.1167      4339.965     
      7630   197.31452     -931.32433     -636.33435      4337.174     
      7640   197.79852     -931.37334      233.43416      4333.8344    
      7650   184.20049     -931.01778      1097.4004      4330.7392    
      7660   199.90452     -931.46775      1537.599       4328.6582    
      7670   195.66504     -931.35961      1691.6204      4328.0123    
      7680   189.55087     -931.19649      1525.1301      4328.9338    
      7690   202.17382     -931.55137      947.85068      4331.2513    
      7700   195.72273     -931.37411      206.19507      4334.443     
      7710   188.56325     -931.17318     -606.69674      4337.8174    
      7720   197.54342     -931.41601     -1407.1888      4340.6134    
      7730   184.88361     -931.05388     -1775.0466      4342.116     
      7740   177.49256     -930.83406     -1631.3108      4341.9868    
      7750   195.3519      -931.30797     -1162.3414      4340.3518    
      7760   208.67165     -931.65128     -455.52706      4337.6537    
      7770   194.78736     -931.23951      398.13782      4334.5589    
      7780   202.13359     -931.41757      983.18592      4331.8337    
      7790   216.19868     -931.78303      1218.4343      4330.019     
      7800   184.72945     -930.88885      1289.1633      4329.3479    
      7810   168.87414     -930.42587      1100.0647      4329.8717    
      7820   209.39988     -931.51772      727.0852       4331.4137    
      7830   201.76357     -931.26476      515.21854      4333.6573    
      7840   188.08027     -930.84696      66.606783      4336.3664    
      7850   235.9226      -932.13461     -796.69245      4339.1001    
      7860   213.76558     -931.48501     -1314.5919      4341.1161    
      7870   155.43474     -929.84076     -1482.705       4341.924     
      7880   191.999       -930.82432     -1578.5467      4341.338     
      7890   210.03666     -931.27589     -1103.0138      4339.3194    
      7900   177.26698     -930.31661     -136.78657      4336.3152    
      7910   201.48819     -930.93489      671.64071      4333.1803    
      7920   232.72124     -931.73508      1267.175       4330.6746    
      7930   226.06698     -931.49506      1598.7472      4329.3507    
      7940   212.16486     -931.07361      1540.1688      4329.5026    
      7950   186.88542     -930.34428      1244.3283      4331.0888    
      7960   201.8127      -930.72908      599.97158      4333.8191    
      7970   241.6739      -931.80344     -290.74042      4337.0946    
      7980   202.67155     -930.69864     -930.17772      4340.1251    
      7990   182.29428     -930.11751     -1504.3963      4342.2861    
      8000   221.60704     -931.19096     -1954.575       4343.0362    
      8010   188.22145     -930.24526     -1603.1512      4342.0166    
      8020   181.04647     -930.02614     -857.03189      4339.523     
      8030   249.48946     -931.89662     -140.81804      4336.2236    
      8040   223.49254     -931.1502       949.80381      4332.8404    
      8050   190.6666      -930.22791      1798.8181      4330.3426    
      8060   241.34386     -931.63052      1761.691       4329.4663    
      8070   230.03781     -931.33024      1347.7915      4330.2241    
      8080   186.77254     -930.15928      755.35425      4332.2416    
      8090   208.44072     -930.79982     -81.325072      4334.9514    
      8100   194.98563     -930.47285     -669.44981      4337.6141    
      8110   168.15165     -929.77004     -1012.0333      4339.672     
      8120   202.0691      -930.75397     -1262.2759      4340.785     
      8130   218.23987     -931.25655     -1096.8223      4340.7483    
      8140   215.2621      -931.24178     -657.25185      4339.7067    
      8150   235.94437     -931.90835     -347.82574      4338.0377    
      8160   214.30323     -931.41986      43.778046      4336.0578    
      8170   196.55112     -931.03345      406.33082      4334.1237    
      8180   207.42869     -931.43977      602.99641      4332.5626    
      8190   187.48645     -930.97972      843.58665      4331.5803    
      8200   176.14498     -930.73491      925.06714      4331.384     
      8210   197.97188     -931.39955      614.08351      4332.0281    
      8220   187.94448     -931.17118      264.48209      4333.2545    
      8230   172.78649     -930.78444      18.192067      4334.7463    
      8240   196.40593     -931.46431     -301.03636      4336.2547    
      8250   204.33305     -931.70484     -596.30716      4337.4892    
      8260   186.19258     -931.21955     -749.45614      4338.181     
      8270   177.43079     -930.98718     -777.6242       4338.182     
      8280   186.57854     -931.24251     -652.43582      4337.467     
      8290   199.29619     -931.59018     -318.6292       4336.1592    
      8300   198.62887     -931.56399      117.16755      4334.5634    
      8310   188.5233      -931.27345      544.52219      4333.0812    
      8320   195.98245     -931.46649      895.30104      4332.1091    
      8330   214.90506     -931.97532      1031.1571      4331.9676    
      8340   224.36062     -932.22888      751.57358      4332.7675    
      8350   195.01845     -931.41532      220.89162      4334.2637    
      8360   159.47872     -930.42577     -369.11759      4335.9729    
      8370   172.55962     -930.77204     -872.24954      4337.349     
      8380   192.76511     -931.2988      -979.63975      4337.9426    
      8390   169.74362     -930.61394     -658.79693      4337.6562    
      8400   190.23804     -931.12778     -401.47562      4336.7442    
      8410   219.41371     -931.8644      -113.89851      4335.4591    
      8420   178.70395     -930.66138      415.4501       4334.0937    
      8430   185.97661     -930.79555      653.67402      4333.0962    
      8440   235.76079     -932.09349      584.0271       4332.6898    
      8450   202.26876     -931.08699      701.05728      4332.8592    
      8460   191.25455     -930.72435      637.08208      4333.6789    
      8470   234.63731     -931.87166      270.8853       4335.0811    
      8480   217.89151     -931.36019     -66.124895      4336.7556    
      8490   190.03103     -930.55747     -510.16049      4338.3709    
      8500   208.43849     -931.04261     -1026.7549      4339.5072    
      8510   203.94385     -930.89283     -1097.5276      4339.7225    
      8520   194.85587     -930.62114     -791.6398       4338.938     
      8530   195.47458     -930.61866     -395.45446      4337.4153    
      8540   206.15667     -930.89417      7.2924511      4335.5209    
      8550   218.64171     -931.22392      415.84086      4333.6336    
      8560   191.67514     -930.46429      823.82679      4332.1392    
      8570   181.27354     -930.16344      999.26916      4331.4023    
      8580   222.43583     -931.29152      868.29853      4331.582     
      8590   213.31638     -931.02833      754.06455      4332.5909    
      8600   195.81696     -930.5398       479.44534      4334.3087    
      8610   235.99978     -931.65964     -141.06732      4336.4614    
      8620   220.90128     -931.25831     -627.53982      4338.5112    
      8630   179.375       -930.1277      -868.25896      4340.005     
      8640   198.87506     -930.68764     -1014.9926      4340.696     
      8650   224.68872     -931.42426     -969.1059       4340.4529    
      8660   237.08011     -931.80576     -729.73535      4339.3137    
      8670   220.1698      -931.39547     -279.15073      4337.5048    
      8680   182.23934     -930.40146      164.35257      4335.4308    
      8690   192.82968     -930.74679      350.93919      4333.4851    
      8700   204.25757     -931.1173       580.15442      4331.8711    
      8710   171.98748     -930.26584      931.38815      4330.8149    
      8720   185.95613     -930.68785      958.3578       4330.606     
      8730   208.00672     -931.33292      844.93526      4331.2933    
      8740   188.27223     -930.81538      758.14921      4332.7922    
      8750   213.84128     -931.55603      269.33235      4334.9859    
      8760   233.18235     -932.13794     -483.80429      4337.4308    
      8770   179.07838     -930.68437     -996.97943      4339.4636    
      8780   175.42338     -930.62149     -1352.8964      4340.581     
      8790   195.84514     -931.22245     -1338.778       4340.4603    
      8800   184.75495     -930.94412     -839.17502      4339.1186    
      8810   203.11346     -931.48152     -204.70054      4336.9906    
      8820   233.60179     -932.36756      423.02097      4334.6622    
      8830   222.92634     -932.13602      947.35714      4332.7206    
      8840   208.59        -931.8323       1010.5484      4331.6281    
      8850   182.12021     -931.21368      713.0926       4331.4593    
      8860   151.61806     -930.48246      313.03883      4331.9595    
      8870   149.24112     -930.52285     -29.04625       4332.7672    
      8880   157.10847     -930.84203     -146.85727      4333.5761    
      8890   170.65201     -931.30914     -96.903237      4334.2711    
      8900   191.44931     -931.97487     -106.94609      4334.8778    
      8910   186.55036     -931.91767     -127.29306      4335.3938    
      8920   190.01059     -932.07931     -161.56352      4335.7972    
      8930   194.22275     -932.25152     -179.50759      4336.0584    
      8940   181.75221     -931.94635     -207.73042      4336.157     
      8950   186.94711     -932.11754     -294.88633      4336.0601    
      8960   194.2347      -932.33855     -315.21139      4335.6946    
      8970   165.72307     -931.55379     -176.41157      4335.049     
      8980   167.81293     -931.60601     -135.64523      4334.227     
      8990   182.6134      -931.99942     -59.579519      4333.2772    
      9000   147.50429     -930.99675      312.55927      4332.2961    
      9010   151.16289     -931.06224      604.20002      4331.5984    
      9020   199.73132     -932.3568       661.14967      4331.4494    
      9030   194.10358     -932.14143      649.89371      4331.9258    
      9040   168.05614     -931.36934      396.2568       4333.0056    
      9050   179.60304     -931.63983     -109.7934       4334.4526    
      9060   188.05373     -931.81646     -505.67019      4335.8249    
      9070   176.71554     -931.44409     -656.53642      4336.7567    
      9080   165.98987     -931.089       -583.36532      4337.0992    
      9090   179.78387     -931.40865     -394.28721      4336.9072    
      9100   209.21056     -932.15385     -235.26059      4336.3424    
      9110   207.80015     -932.04763     -71.055548      4335.5564    
      9120   183.05562     -931.30684      123.20925      4334.7058    
      9130   187.3843      -931.37737      179.95566      4333.9567    
      9140   188.43764     -931.35263      217.9749       4333.3742    
      9150   167.35243     -930.71207      380.37303      4333.0103    
      9160   196.37261     -931.45803      373.36729      4332.9911    
      9170   217.64018     -931.98021      311.67444      4333.3257    
      9180   178.10446     -930.8246       374.86231      4333.9781    
      9190   181.05183     -930.85497      154.04435      4334.9724    
      9200   220.73683     -931.89542     -287.83162      4336.1087    
      9210   201.77048     -931.3114      -433.30247      4337.0189    
      9220   179.16735     -930.63849     -428.02981      4337.5468    
      9230   197.72635     -931.10582     -523.37029      4337.6699    
      9240   205.24048     -931.26207     -503.06444      4337.3146    
      9250   190.57984     -930.80697     -282.64481      4336.5025    
      9260   197.33297     -930.94824     -83.596006      4335.4161    
      9270   214.11107     -931.36629      128.5249       4334.2448    
      9280   202.19557     -930.99318      485.97392      4333.2015    
      9290   185.82392     -930.50188      769.86219      4332.6054    
      9300   205.24711     -931.00259      775.92339      4332.7125    
      9310   227.38358     -931.57873      616.96306      4333.5483    
      9320   212.32139     -931.13364      374.52217      4334.9798    
      9330   213.10937     -931.14051     -99.479759      4336.7704    
      9340   218.37785     -931.2793      -665.5464       4338.489     
      9350   199.68062     -930.76019     -1099.104       4339.6155    
      9360   183.94401     -930.32417     -1184.3223      4339.7475    
      9370   186.40338     -930.38759     -847.40494      4338.7975    
      9380   198.92413     -930.72272     -310.90365      4337.053     
      9390   221.35931     -931.33213      197.86401      4334.9938    
      9400   216.23656     -931.18386      696.67065      4333.1028    
      9410   204.02763     -930.84717      998.35911      4331.8375    
      9420   222.66        -931.37579      967.14024      4331.4769    
      9430   207.78194     -930.9846       891.37124      4332.0324    
      9440   184.74683     -930.36983      606.49716      4333.429     
      9450   203.57315     -930.91769     -30.895027      4335.3938    
      9460   198.02085     -930.78946     -510.5364       4337.3794    
      9470   197.95399     -930.81462     -785.07475      4338.9328    
      9480   228.4139      -931.69993     -1047.5403      4339.7668    
      9490   199.22238     -930.94441     -981.00098      4339.6532    
      9500   182.41779     -930.53236     -656.77412      4338.6335    
      9510   227.93622     -931.86467     -293.89803      4336.9816    
      9520   215.07677     -931.59992      231.74246      4335.0499    
      9530   185.00164     -930.8582       567.00095      4333.3004    
      9540   193.9095      -931.1984       566.30172      4332.0383    
      9550   172.76732     -930.69595      667.90542      4331.3104    
      9560   163.04986     -930.48599      805.89319      4331.2135    
      9570   215.62003     -932.00237      649.14958      4331.8554    
      9580   215.68949     -932.06967      481.51748      4333.1303    
      9590   183.15559     -931.22482      224.62613      4334.8823    
      9600   195.5704      -931.61903     -377.54127      4336.85      
      9610   191.15577     -931.53812     -925.38836      4338.5031    
      9620   169.33162     -930.9611      -1171.0399      4339.335     
      9630   170.44498     -931.00574     -1185.5898      4339.09      
      9640   188.83599     -931.51842     -917.86381      4337.7415    
      9650   188.19685     -931.49456     -260.3589       4335.5385    
      9660   178.39542     -931.20918      498.16088      4333.0669    
      9670   193.23127     -931.59965      1012.2234      4331.013     
      9680   219.06515     -932.29298      1223.0378      4329.865     
      9690   197.80474     -931.68499      1271.1676      4329.8511    
      9700   177.77594     -931.11418      1049.4375      4331.0247    
      9710   203.66174     -931.81345      502.36016      4333.1912    
      9720   206.90376     -931.88084     -156.72729      4335.87      
      9730   180.61695     -931.13035     -824.77768      4338.453     
      9740   174.42155     -930.93335     -1441.6378      4340.3055    
      9750   179.07937     -931.02781     -1729.9497      4340.8508    
      9760   173.85741     -930.84022     -1482.203       4339.8078    
      9770   158.28568     -930.35797     -731.6383       4337.3846    
      9780   180.13412     -930.90302      141.38014      4334.2392    
      9790   228.95647     -932.18219      934.58472      4331.1732    
      9800   220.20326     -931.87475      1679.8488      4328.9459    
      9810   187.05534     -930.91469      2022.9834      4328.2458    
      9820   216.86036     -931.71397      1582.135       4329.3874    
      9830   225.82783     -931.94428      804.06335      4332.0291    
      9840   186.97424     -930.85767      18.011879      4335.4906    
      9850   200.81085     -931.23505     -924.18592      4339.0223    
      9860   209.03728     -931.45564     -1611.4318      4341.7663    
      9870   173.0649      -930.44905     -1757.4413      4343.0778    
      9880   187.62221     -930.84239     -1701.5794      4342.7565    
      9890   214.13533     -931.5636      -1384.2023      4340.8355    
      9900   194.3452      -931.00276     -654.69663      4337.6059    
      9910   177.04812     -930.50989      236.00707      4333.7187    
      9920   187.32043     -930.77359      1065.3821      4329.9896    
      9930   193.3393      -930.91028      1802.8038      4327.2072    
      9940   204.1377      -931.17886      2157.8609      4326.0562    
      9950   205.68657     -931.19422      2046.8142      4326.8946    
      9960   208.69446     -931.25644      1465.2312      4329.6532    
      9970   218.56325     -931.51526      485.08001      4333.8231    
      9980   202.87212     -931.06904     -561.35156      4338.5321    
      9990   201.68986     -931.02714     -1522.7908      4342.8061    
     10000   223.84669     -931.63688     -2275.4307      4345.7268    
     10010   212.21869     -931.31998     -2476.3789      4346.581     
     10020   196.12223     -930.88885     -2154.1013      4345.1364    
     10030   199.14958     -930.9915      -1534.4195      4341.6434    
     10040   186.9652      -930.66852     -540.75049      4336.6715    
     10050   175.65757     -930.35885      804.73259      4331.1448    
     10060   192.99435     -930.83182      2093.5812      4326.2952    
     10070   207.85732     -931.2294       2927.2998      4323.3177    
     10080   220.64528     -931.57694      3045.4953      4323.0036    
     10090   220.62481     -931.58517      2426.9833      4325.5066    
     10100   193.46528     -930.85041      1195.2016      4330.3032    
     10110   176.85098     -930.40272     -376.93274      4336.2919    
     10120   183.90123     -930.59829     -1783.0014      4342.0438    
     10130   193.67765     -930.85891     -2639.0235      4346.2447    
     10140   200.53012     -931.0353      -2873.8491      4348.0526    
     10150   216.8316      -931.47732     -2542.8872      4347.1983    
     10160   233.51184     -931.94104     -1748.0002      4343.9512    
     10170   221.65991     -931.63033     -613.0291       4339.03      
     10180   198.80674     -931.02471      602.51364      4333.4732    
     10190   197.60062     -931.02187      1631.4757      4328.403     
     10200   205.37925     -931.2744       2384.4916      4324.79      
     10210   188.70901     -930.85456      2772.3387      4323.3556    
     10220   181.76942     -930.70589      2466.7241      4324.4638    
     10230   195.42024     -931.13023      1522.8932      4327.8688    
     10240   186.88827     -930.93636      362.79852      4332.7531    
     10250   172.6947      -930.57358     -817.35132      4338.0577    
     10260   193.02214     -931.15977     -1913.8676      4342.6732    
     10270   198.5628      -931.33326     -2509.3772      4345.5806    
     10280   183.4953      -930.93417     -2472.9052      4346.1965    
     10290   202.60671     -931.48458     -2038.7843      4344.5022    
     10300   225.57616     -932.14923     -1211.4911      4340.8864    
     10310   207.4876      -931.68449     -33.752511      4336.1151    
     10320   187.21329     -931.15781      1097.927       4331.2602    
     10330   201.84744     -931.59792      1856.3385      4327.3629    
     10340   207.79888     -931.80282      2272.9789      4325.1521    
     10350   180.25497     -931.08023      2324.4344      4325.036     
     10360   169.32971     -930.81069      1815.2868      4327.0693    
     10370   192.35458     -931.47603      812.49425      4330.8045    
     10380   189.27479     -931.40952     -261.14652      4335.3548    
     10390   166.63684     -930.78812     -1190.9452      4339.7315    
     10400   192.12068     -931.49185     -1998.065       4343.0427    
     10410   205.74425     -931.86083     -2351.4042      4344.5362    
     10420   170.35499     -930.86817     -2064.7784      4343.8713    
     10430   175.83894     -931.00379     -1460.9236      4341.2675    
     10440   203.78987     -931.74675     -600.03883      4337.2791    
     10450   196.4712      -931.49934      506.55408      4332.713     
     10460   186.20363     -931.16482      1576.9582      4328.5867    
     10470   190.70154     -931.23015      2330.0514      4325.8901    
     10480   209.44881     -931.6814       2511.2746      4325.3228    
     10490   231.07138     -932.21076      2063.4997      4327.0691    
     10500   205.61168     -931.44365      1237.3233      4330.7569    
     10510   191.86216     -931.0106      -17.519156      4335.6215    
     10520   209.66614     -931.4464      -1458.9306      4340.5066    
     10530   168.55734     -930.24181     -2344.3697      4344.1112    
     10540   149.13555     -929.64207     -2654.7009      4345.5743    
     10550   203.42306     -931.06859     -2418.8263      4344.5742    
     10560   204.32491     -930.99543     -1295.0814      4341.3524    
     10570   199.41388     -930.77451      111.89549      4336.9093    
     10580   255.82833     -932.26156      1045.9506      4332.5028    
     10590   235.14113     -931.63323      1768.7145      4329.0461    
     10600   190.61366     -930.37414      2131.303       4327.2106    
     10610   217.12165     -931.09881      1829.8677      4327.316     
     10620   193.41562     -930.43303      1360.1616      4329.1417    
     10630   166.1989      -929.66815      740.01815      4332.2589    
     10640   215.3047      -931.01505     -176.06346      4336.0774    
     10650   228.28847     -931.35835     -909.78032      4339.7843    
     10660   212.35719     -930.91332     -1413.9278      4342.6845    
     10670   221.37639     -931.17325     -1819.5556      4344.278     
     10680   209.10962     -930.85229     -1823.0938      4344.1972    
     10690   192.32427     -930.40744     -1370.7004      4342.4321    
     10700   223.35655     -931.29309     -779.0723       4339.3717    
     10710   225.60609     -931.38925      23.598109      4335.5817    
     10720   198.31225     -930.67035      863.33119      4331.8023    
     10730   188.46961     -930.43069      1442.1313      4328.7987    
     10740   194.26147     -930.61861      1799.4286      4327.123     
     10750   204.33194     -930.92422      1974.7899      4327.1226    
     10760   210.16136     -931.11578      1720.8262      4328.9517    
     10770   217.06833     -931.34407      928.09217      4332.3759    
     10780   214.02484     -931.30327     -130.2407       4336.6853    
     10790   187.91173     -930.61902     -1188.1135      4340.909     
     10800   182.30034     -930.49286     -2103.4556      4344.0519    
     10810   202.60183     -931.08182     -2513.7383      4345.267     
     10820   205.86078     -931.20076     -2158.7159      4344.1746    
     10830   197.16368     -930.98957     -1246.9626      4341.0817    
     10840   205.10365     -931.23835     -122.20763      4336.816     
     10850   220.07873     -931.68389      976.0012       4332.4199    
     10860   221.92156     -931.77466      1757.4484      4328.904     
     10870   198.91178     -931.18222      2046.8334      4326.9921    
     10880   185.71908     -930.85836      1815.8541      4326.9588    
     10890   190.01112     -931.01475      1270.9363      4328.6131    
     10900   171.1181      -930.51592      685.86277      4331.4779    
     10910   173.23973     -930.58504     -45.119788      4334.9993    
     10920   212.21727     -931.66777     -876.51928      4338.4947    
     10930   210.53602     -931.62207     -1393.4739      4341.2152    
     10940   189.5778      -931.0446      -1548.4574      4342.6688    
     10950   206.14613     -931.51004     -1558.9782      4342.679     
     10960   207.25301     -931.54855     -1301.2089      4341.2414    
     10970   186.55986     -930.98217     -715.40831      4338.5996    
     10980   191.96831     -931.13573     -5.5697712      4335.2848    
     10990   199.3742      -931.33864      701.2309       4331.9559    
     11000   193.79527     -931.17856      1282.933       4329.2686    
     11010   182.77832     -930.86471      1648.8296      4327.7649    
     11020   183.78494     -930.87898      1652.204       4327.7814    
     11030   214.49163     -931.71616      1235.1168      4329.3216    
     11040   200.1058      -931.30498      784.69935      4332.039     
     11050   173.44839     -930.55333      246.6446       4335.5126    
     11060   225.02613     -931.97124     -667.52265      4339.2102    
     11070   240.34895     -932.39174     -1449.415       4342.3172    
     11080   183.42433     -930.81894     -1856.2054      4344.1089    
     11090   186.02081     -930.89638     -2159.0222      4344.1616    
     11100   206.63496     -931.47221     -1982.077       4342.2128    
     11110   155.37506     -930.04632     -948.19757      4338.4598    
     11120   157.84229     -930.09976      245.70069      4333.8106    
     11130   214.12938     -931.63018      1258.3504      4329.3624    
     11140   206.33661     -931.37918      2208.1768      4326.0847    
     11150   195.20018     -931.04675      2624.7683      4324.8297    
     11160   217.61589     -931.65345      2290.8043      4325.9778    
     11170   207.60516     -931.36756      1517.1593      4329.2591    
     11180   197.53622     -931.0849       388.08728      4333.9651    
     11190   210.05183     -931.42826     -824.62307      4339.0638    
     11200   196.45128     -931.04498     -1697.5946      4343.4492    
     11210   197.19443     -931.05988     -2338.5942      4346.2744    
     11220   221.24462     -931.72689     -2660.5758      4346.9258    
     11230   197.56449     -931.07756     -2250.5085      4345.1257    
     11240   183.12042     -930.68573     -1363.0886      4341.2292    
     11250   206.65414     -931.34318     -247.03417      4336.0505    
     11260   196.77969     -931.0674       1084.2041      4330.6461    
     11270   182.25038     -930.65736      2097.3954      4326.2215    
     11280   194.84487     -930.99584      2495.9756      4323.7037    
     11290   182.34205     -930.63342      2543.5878      4323.4973    
     11300   172.91343     -930.35141      2162.6057      4325.6496    
     11310   207.24736     -931.27368      1238.6173      4329.8053    
     11320   213.0422      -931.39315      192.07327      4335.1509    
     11330   213.69906     -931.37158     -914.33552      4340.7121    
     11340   242.38104     -932.13384     -2045.055       4345.4419    
     11350   217.18434     -931.41686     -2656.2673      4348.311     
     11360   190.20052     -930.66474     -2780.5242      4348.7197    
     11370   214.43147     -931.34137     -2550.5302      4346.5216    
     11380   197.13005     -930.86805     -1583.6652      4341.966     
     11390   182.71082     -930.47089     -162.71287      4335.9388    
     11400   215.45799     -931.37573      1199.3882      4329.7355    
     11410   197.21973     -930.86147      2456.2979      4324.64      
     11420   172.06001     -930.15356      3159.0137      4321.7925    
     11430   207.42776     -931.12389      3012.0295      4321.8286    
     11440   206.50981     -931.08523      2462.7767      4324.6678    
     11450   183.047       -930.4224       1469.719       4329.8085    
     11460   204.38023     -930.99394     -109.94467      4336.3193    
     11470   221.63234     -931.43949     -1654.166       4342.7759    
     11480   206.73784     -930.99417     -2690.6836      4347.7524    
     11490   203.66067     -930.88336     -3232.5429      4350.2467    
     11500   218.22107     -931.26871     -3168.6018      4349.7367    
     11510   216.96759     -931.22527     -2380.2528      4346.2829    
     11520   210.59291     -931.04932     -1094.3289      4340.606     
     11530   203.63429     -930.85759      493.39283      4333.9082    
     11540   212.84952     -931.11349      2003.8476      4327.6547    
     11550   216.0887      -931.20967      3029.1981      4323.2308    
     11560   195.95601     -930.66769      3363.9242      4321.5837    
     11570   193.95049     -930.63589      2898.4814      4323.0258    
     11580   212.32771     -931.17623      1765.5228      4327.1469    
     11590   193.00801     -930.67288      460.80436      4332.9461    
     11600   163.51794     -929.87438     -849.16562      4339.2208    
     11610   203.94342     -931.00513     -2213.5282      4344.7256    
     11620   232.19689     -931.80248     -3036.3854      4348.2126    
     11630   192.83786     -930.73694     -2970.6664      4348.9173    
     11640   203.84642     -931.07784     -2519.9629      4346.839     
     11650   227.15333     -931.77519     -1656.7257      4342.4014    
     11660   175.16098     -930.38223     -159.51822      4336.4442    
     11670   182.54512     -930.62241      1259.5701      4330.3135    
     11680   238.48263     -932.21593      2325.3448      4325.3235    
     11690   212.48725     -931.55399      3142.1135      4322.4893    
     11700   179.764       -930.70717      3215.662       4322.537     
     11710   206.89681     -931.52712      2312.3877      4325.5264    
     11720   202.15998     -931.46664      1005.9625      4330.6823    
     11730   183.25982     -931.00308     -416.76416      4336.8132    
     11740   190.57872     -931.25533     -1766.9574      4342.5971    
     11750   195.15028     -931.42492     -2739.8575      4346.7772    
     11760   188.44081     -931.27927     -3196.2833      4348.427     
     11770   178.66474     -931.04548     -2999.0784      4347.1092    
     11780   168.20856     -930.78358     -2080.9842      4343.0064    
     11790   173.97717     -930.95672     -684.39815      4336.9631    
     11800   184.35211     -931.2404       927.36283      4330.2753    
     11810   178.66601     -931.06124      2554.1047      4324.4473    
     11820   202.94511     -931.70544      3608.3347      4320.9541    
     11830   239.19287     -932.6867       3702.5002      4320.7573    
     11840   234.13679     -932.54632      2895.2279      4323.9668    
     11850   202.47327     -931.68744      1382.4723      4329.8655    
     11860   179.1189      -931.05566     -521.32109      4337.0761    
     11870   163.61526     -930.62311     -2229.5675      4343.861     
     11880   168.2946      -930.73346     -3356.2027      4348.6236    
     11890   178.84245     -930.9927      -3680.4597      4350.2957    
     11900   196.67131     -931.44439     -3235.784       4348.5459    
     11910   197.96632     -931.42702     -2083.6495      4343.7831    
     11920   187.5109      -931.07273     -508.93771      4337.0711    
     11930   183.78477     -930.88667      1185.7979      4329.8738    
     11940   195.35635     -931.10199      2694.3928      4323.7607    
     11950   211.85096     -931.43786      3669.2184      4320.1179    
     11960   213.33996     -931.3631       3838.454       4319.84      
     11970   205.79874     -931.06007      3110.4375      4323.0927    
     11980   208.19087     -931.04981      1650.1744      4329.2318    
     11990   220.23983     -931.31562     -200.31404      4336.938     
     12000   214.37228     -931.0935      -2040.777       4344.509     
     12010   193.14011     -930.45754     -3406.641       4350.2348    
     12020   192.29336     -930.39804     -3997.9046      4352.8223    
     12030   203.37695     -930.67952     -3678.1163      4351.6995    
     12040   205.70062     -930.72804     -2530.2931      4347.1514    
     12050   211.97306     -930.89124     -913.27763      4340.2345    
     12060   236.37805     -931.56285      782.67465      4332.4464    
     12070   219.74323     -931.10489      2453.1659      4325.3817    
     12080   186.7367      -930.19537      3632.1901      4320.5671    
     12090   207.39143     -930.77951      3841.6661      4319.064     
     12100   211.62568     -930.91821      3349.7127      4321.1036    
     12110   177.24702     -929.98617      2334.1133      4326.2629    
     12120   214.32686     -931.03274      574.64755      4333.5883    
     12130   245.17256     -931.90824     -1317.7736      4341.4953    
     12140   194.32298     -930.52183     -2729.5615      4348.2503    
     12150   193.60249     -930.52436     -3807.5933      4352.4794    
     12160   232.60556     -931.64305     -4176.47        4353.1697    
     12170   194.97741     -930.65016     -3349.9389      4350.0001    
     12180   175.12681     -930.14403     -1851.7291      4343.6994    
     12190   217.33379     -931.35313     -76.525587      4335.6562    
     12200   216.56595     -931.36652      1907.4533      4327.5491    
     12210   196.73197     -930.84803      3469.9592      4321.1869    
     12220   203.86055     -931.082        4162.4804      4317.9918    
     12230   203.71193     -931.12325      4075.8213      4318.6269    
     12240   210.63917     -931.37243      3100.3712      4323.0167    
     12250   210.23935     -931.4243       1339.6213      4330.2832    
     12260   196.7525      -931.10398     -805.7481       4338.829     
     12270   200.33363     -931.2457      -2868.077       4346.6715    
     12280   181.44643     -930.7555      -4133.6901      4351.9049    
     12290   154.75548     -930.03723     -4308.0468      4353.3282    
     12300   189.0861      -931.00886     -3670.3028      4350.729     
     12310   220.35074     -931.89573     -2208.1497      4344.7105    
     12320   196.2187      -931.2424      -45.042292      4336.6558    
     12330   205.23521     -931.50076      1909.3954      4328.5311    
     12340   227.54986     -932.1299       3172.9326      4322.1339    
     12350   193.17983     -931.19455      3860.5614      4318.6582    
     12360   172.49994     -930.64072      3763.4371      4318.7279    
     12370   192.60085     -931.21731      2808.894       4322.2564    
     12380   189.04175     -931.13059      1420.2784      4328.4089    
     12390   177.21081     -930.802       -149.47164      4335.9211    
     12400   201.7206      -931.46787     -1794.4987      4343.3284    
     12410   217.69935     -931.89039     -3101.5791      4349.1063    
     12420   205.2417      -931.5329      -3765.1177      4352.0238    
     12430   194.28439     -931.22848     -3679.8029      4351.4413    
     12440   193.77121     -931.219       -2834.92        4347.43      
     12450   188.90924     -931.08468     -1383.3976      4340.7781    
     12460   181.98927     -930.88025      362.02751      4332.8353    
     12470   175.53716     -930.66828      2128.9598      4325.228     
     12480   186.13983     -930.90732      3522.1276      4319.5788    
     12490   206.49777     -931.39488      4223.6705      4317.1625    
     12500   205.20746     -931.26458      4092.1461      4318.6296    
     12510   211.00298     -931.31676      2975.2857      4323.8617    
     12520   232.24183     -931.76863      1052.5788      4331.8535    
     12530   215.8277      -931.15953     -1087.6953      4340.8701    
     12540   196.60174     -930.4832      -3048.5682      4348.9232    
     12550   197.51718     -930.37553     -4383.4993      4354.1738    
     12560   189.05328     -930.0277      -4611.1123      4355.3727    
     12570   212.68488     -930.59644     -3814.9669      4352.2765    
     12580   243.38624     -931.37979     -2150.6688      4345.6274    
     12590   221.279       -930.72214      119.52636      4336.9927    
     12600   224.36592     -930.77927      2147.7485      4328.4475    
     12610   251.11242     -931.50974      3485.0157      4321.8593    
     12620   203.61922     -930.20217      4221.5912      4318.4879    
     12630   177.89597     -929.50645      3972.1554      4318.9839    
     12640   218.57468     -930.65878      2727.3957      4323.1234    
     12650   206.84913     -930.3587       1162.717       4329.8225    
     12660   178.7367      -929.59494     -529.44874      4337.6419    
     12670   217.80589     -930.68658     -2211.6647      4344.9984    
     12680   235.0878      -931.17973     -3229.8239      4350.3522    
     12690   213.54999     -930.61405     -3514.5863      4352.7257    
     12700   229.20331     -931.101       -3342.9726      4351.8071    
     12710   245.90432     -931.64661     -2512.539       4347.7736    
     12720   220.5429      -931.04469     -1014.4688      4341.4158    
     12730   204.53178     -930.69488      646.2067       4334.1104    
     12740   219.66637     -931.20487      2065.5334      4327.3911    
     12750   216.96945     -931.22131      3030.7351      4322.573     
     12760   201.01018     -930.86569      3293.1387      4320.5341    
     12770   181.46625     -930.39795      2960.2607      4321.5326    
     12780   168.10865     -930.08112      2166.9841      4325.2788    
     12790   181.74156     -930.49515      890.73177      4331.0395    
     12800   194.8336      -930.87872     -549.88026      4337.6563    
     12810   204.58424     -931.15929     -1857.6954      4343.8003    
     12820   231.58768     -931.92372     -2917.3206      4348.2339    
     12830   214.13515     -931.47032     -3303.0138      4349.9789    
     12840   170.07663     -930.27956     -2956.9543      4348.6621    
     12850   196.77691     -931.04807     -2201.3025      4344.573     
     12860   227.5471      -931.9311      -837.99972      4338.4482    
     12870   195.40231     -931.06636      1059.8869      4331.576     
     12880   207.59887     -931.42705      2547.4322      4325.6597    
     12890   242.97184     -932.44633      3226.811       4322.0608    
     12900   185.07974     -930.8904       3336.8111      4321.4423    
     12910   161.55958     -930.27805      2581.6939      4323.8834    
     12920   203.92887     -931.48898      1177.3129      4328.7082    
     12930   184.21772     -930.96703     -121.65323      4334.6813    
     12940   161.63388     -930.34964     -1343.665       4340.5786    
     12950   193.50574     -931.23019     -2492.5616      4345.2394    
     12960   200.34371     -931.40866     -2996.4793      4347.6183    
     12970   196.33608     -931.29004     -2785.8443      4347.2288    
     12980   206.92085     -931.58092     -2079.4823      4344.2411    
     12990   191.55274     -931.15028     -896.53641      4339.3233    
     13000   192.50421     -931.16712      420.19157      4333.5617    
     13010   204.86096     -931.49199      1672.9305      4328.1818    
     13020   197.60287     -931.26839      2678.0128      4324.3476    
     13030   206.86466     -931.50613      2942.5213      4322.9589    
     13040   208.81418     -931.54642      2472.3915      4324.2705    
     13050   173.82016     -930.56195      1695.1031      4327.8952    
     13060   187.15589     -930.91036      507.80761      4333.1034    
     13070   219.29058     -931.7605      -849.13123      4338.8092    
     13080   204.8988      -931.31089     -1868.8003      4343.7795    
     13090   203.23216     -931.21582     -2582.9304      4347.0347    
     13100   213.87418     -931.45961     -2916.1977      4347.8907    
     13110   189.79947     -930.74055     -2552.7207      4346.0485    
     13120   177.4344      -930.34449     -1611.0168      4341.8318    
     13130   191.82753     -930.67109     -342.33263      4336.1074    
     13140   190.24504     -930.53072      1098.6552      4330.0613    
     13150   188.96994     -930.38753      2380.6038      4325.0209    
     13160   217.29329     -931.05753      3166.1885      4322.1613    
     13170   230.65839     -931.31848      3348.7238      4322.2181    
     13180   224.87054     -931.07903      2744.32        4325.3617    
     13190   239.36719     -931.43078      1334.3045      4331.0443    
     13200   228.93083     -931.11108     -306.90867      4338.0112    
     13210   196.89104     -930.20374     -1790.2751      4344.7553    
     13220   217.06824     -930.74998     -3098.1894      4349.8613    
     13230   230.37134     -931.11745     -3741.5344      4352.114     
     13240   197.54136     -930.22176     -3415.408       4350.9087    
     13250   204.70036     -930.44422     -2493.2115      4346.5044    
     13260   223.92195     -931.00688     -1074.3736      4339.764     
     13270   193.8703      -930.1994       769.9358       4332.0266    
     13280   186.47504     -930.00961      2447.1495      4324.9767    
     13290   210.29498     -930.68114      3613.2575      4320.1616    
     13300   222.3031      -931.03637      4074.1467      4318.6614    
     13310   214.74848     -930.86853      3630.7442      4320.9045    
     13320   209.63712     -930.78111      2333.713       4326.5068    
     13330   222.59864     -931.20018      463.50368      4334.3057    
     13340   227.01469     -931.38978     -1562.5936      4342.5919    
     13350   187.75223     -930.3607      -3147.0557      4349.5005    
     13360   186.72083     -930.38117     -4064.7798      4353.522     
     13370   226.28124     -931.5397      -4118.9534      4353.7735    
     13380   223.25559     -931.53707     -3206.9882      4350.1931    
     13390   204.89206     -931.11064     -1700.5736      4343.6051    
     13400   214.70437     -931.46028     -20.511992      4335.3985    
     13410   196.13208     -931.00764      1786.3455      4327.1601    
     13420   167.48725     -930.24778      3378.6268      4320.5585    
     13430   182.39494     -930.68014      4178.717       4317.0355    
     13440   205.78647     -931.34815      4023.6369      4317.3345    
     13450   196.69139     -931.11943      3123.2025      4321.3521    
     13460   179.51197     -930.66164      1636.5806      4328.2895    
     13470   195.22753     -931.1025      -271.20176      4336.7917    
     13480   220.03478     -931.78529     -2160.2177      4345.1077    
     13490   202.79423     -931.30027     -3489.8779      4351.4887    
     13500   210.72068     -931.52234     -4265.3966      4354.6409    
     13510   228.43563     -932.03441     -4266.5176      4353.8182    
     13520   189.47097     -930.98837     -3227.43        4349.0242    
     13530   156.31323     -930.09193     -1486.6197      4341.2078    
     13540   191.77651     -931.07974      484.59348      4331.9753    
     13550   198.18179     -931.24005      2610.7445      4323.1859    
     13560   178.98691     -930.68059      4350.9686      4316.7876    
     13570   207.80539     -931.45709      5020.3397      4314.3489    
     13580   224.19935     -931.90258      4582.3884      4316.5112    
     13590   203.83453     -931.34675      3080.6203      4322.9023    
     13600   194.25308     -931.09046      743.42227      4332.1745    
     13610   201.42533     -931.28406     -1740.2348      4342.2146    
     13620   193.34048     -931.04105     -3671.6383      4350.7325    
     13630   184.21567     -930.76686     -4769.7952      4355.8893    
     13640   185.23371     -930.77818     -4897.2924      4356.6163    
     13650   198.72918     -931.14057     -4054.7581      4352.7652    
     13660   213.42533     -931.53749     -2342.6272      4345.1179    
     13670   196.818       -931.05867      32.031751      4335.2867    
     13680   190.77112     -930.8588       2334.3731      4325.4539    
     13690   201.70195     -931.11612      4031.7439      4317.7369    
     13700   195.90172     -930.9071       5048.6262      4313.7174    
     13710   195.39551     -930.8535       5086.7771      4314.326     
     13720   217.19777     -931.42416      3861.943       4319.5993    
     13730   219.37255     -931.44741      1750.7503      4328.4677    
     13740   208.80136     -931.10998     -701.50651      4339.0304    
     13750   212.682       -931.16046     -3056.3642      4349.0186    
     13760   205.60673     -930.89946     -4747.8872      4356.2288    
     13770   190.25641     -930.41516     -5386.6992      4359.0486    
     13780   204.85087     -930.76917     -4921.3628      4356.8392    
     13790   213.54598     -930.95681     -3332.9349      4350.0326    
     13800   198.8425      -930.48745     -943.34603      4340.1152    
     13810   208.28701     -930.66988      1553.7591      4329.2968    
     13820   216.61224     -930.79972      3719.7498      4319.8956    
     13830   200.45057     -930.2516       5177.0796      4313.9047    
     13840   213.95024     -930.54259      5465.4947      4312.6404    
     13850   230.84389     -930.94328      4641.1226      4316.3934    
     13860   214.65153     -930.4469       2954.0203      4324.4521    
     13870   216.39833     -930.45643      509.02041      4335.2835    
     13880   245.77081     -931.22553     -2253.9302      4346.6448    
     13890   241.65598     -931.07524     -4495.16        4355.9854    
     13900   207.30275     -930.1121      -5683.6307      4361.1857    
     13910   204.51859     -930.05007     -5733.4852      4361.0811    
     13920   220.79703     -930.54098     -4546.0716      4355.6148    
     13930   208.00554     -930.2364      -2228.6174      4345.9157    
     13940   208.85151     -930.30192      524.91609      4334.1385    
     13950   243.14135     -931.29461      3065.8832      4322.8374    
     13960   225.97272     -930.87786      5113.3064      4314.3715    
     13970   184.01838     -929.78211      6138.3198      4310.5933    
     13980   209.92852     -930.58863      5661.7908      4312.4129    
     13990   238.81499     -931.51319      3915.0383      4319.4297    
     14000   216.29513     -931.02075      1409.3903      4330.0945    
     14010   204.46112     -930.79912     -1472.918       4342.1127    
     14020   196.62722     -930.65511     -4105.8152      4352.8161    
     14030   181.10934     -930.26989     -5820.5073      4359.7354    
     14040   176.29084     -930.17264     -6146.1738      4361.244     
     14050   189.56679     -930.57885     -4981.3885      4357.0254    
     14060   232.29312     -931.80618     -2738.4467      4348.1629    
     14070   247.36584     -932.26988      91.992875      4336.7707    
     14080   213.71711     -931.37398      2833.0415      4325.483     
     14090   213.87062     -931.40597      4679.7966      4316.7996    
     14100   226.8508      -931.80823      5393.49        4312.407     
     14110   176.95277     -930.47443      5138.3391      4312.9731    
     14120   165.04129     -930.18788      3748.4348      4318.2449    
     14130   194.66024     -931.04274      1604.9418      4326.9775    
     14140   176.33132     -930.54429     -606.2673       4337.2419    
     14150   177.66298     -930.5689      -2714.062       4346.9705    
     14160   217.25267     -931.64301     -4344.4359      4354.188     
     14170   212.65178     -931.49947     -4980.7329      4357.3749    
     14180   193.94088     -930.98466     -4637.1046      4355.9118    
     14190   194.71379     -931.02027     -3426.3919      4350.1222    
     14200   199.7291      -931.16958     -1466.0504      4341.1663    
     14210   205.56003     -931.33002      926.4978       4330.8917    
     14220   193.53822     -930.98117      3303.0758      4321.5219    
     14230   195.13138     -931.00387      4942.2373      4315.211     
     14240   227.97253     -931.90644      5342.2745      4313.4233    
     14250   216.46584     -931.60328      4685.5539      4316.5412    
     14260   199.9012      -931.17696      2949.264       4323.9547    
     14270   215.17235     -931.63378      333.33374      4334.0715    
     14280   191.71583     -931.00326     -2303.8377      4344.5163    
     14290   157.44862     -930.05244     -4297.7503      4352.8461    
     14300   184.61395     -930.80001     -5407.2332      4357.1685    
     14310   191.42898     -930.98633     -5195.3024      4356.4626    
     14320   175.77089     -930.5543      -3756.578       4350.9335    
     14330   193.21636     -931.03179     -1590.3092      4341.932     
     14340   205.82142     -931.35176      961.98048      4331.5087    
     14350   207.21352     -931.34321      3359.328       4322.032     
     14360   224.54945     -931.77645      4888.6968      4315.6703    
     14370   218.93869     -931.59074      5301.1282      4313.8053    
     14380   198.23758     -931.01058      4523.2877      4316.7936    
     14390   194.77028     -930.91656      2707.3438      4323.9184    
     14400   202.85584     -931.1324       379.19235      4333.534     
     14410   204.00496     -931.13961     -1893.9164      4343.5056    
     14420   201.62461     -931.03834     -3738.0195      4351.7136    
     14430   214.5649      -931.36478     -4838.4477      4356.4258    
     14440   205.6407      -931.09894     -4839.3482      4356.6287    
     14450   176.46792     -930.28314     -3826.8513      4352.3305    
     14460   189.39937     -930.63118     -2154.9136      4344.4911    
     14470   212.27469     -931.23436      51.807158      4334.7186    
     14480   191.85515     -930.61732      2394.5744      4325.078     
     14490   189.75883     -930.4988       4137.1039      4317.6943    
     14500   220.63335     -931.28931      4982.2213      4314.1421    
     14510   212.7938      -931.01543      4906.7006      4315.1785    
     14520   199.84199     -930.61868      3659.576       4320.6905    
     14530   219.94967     -931.13922      1492.041       4329.5305    
     14540   218.81767     -931.05986     -791.79786      4339.7397    
     14550   208.36345     -930.71892     -2801.0566      4349.196     
     14560   222.47339     -931.06153     -4370.7481      4356.0045    
     14570   231.55565     -931.28062     -5125.9515      4358.709     
     14580   224.85845     -931.09404     -4824.0465      4356.6272    
     14590   193.74988     -930.25199     -3362.697       4350.0943    
     14600   175.50383     -929.76114     -1095.363       4340.5132    
     14610   203.65278     -930.53639      1333.4773      4330.0061    
     14620   231.16925     -931.28166      3516.2358      4320.8298    
     14630   213.87551     -930.79323      5069.3966      4314.9712    
     14640   219.97087     -930.97999      5289.4807      4313.7695    
     14650   228.66253     -931.272        4219.2839      4317.3933    
     14660   184.51947     -930.11309      2483.5931      4324.8771    
     14670   165.75832     -929.64106      285.898        4334.6049    
     14680   219.69276     -931.17477     -2152.5811      4344.5224    
     14690   220.49277     -931.24052     -3913.6025      4352.4084    
     14700   185.74585     -930.32744     -4664.876       4356.626     
     14710   221.54114     -931.39259     -4645.2149      4356.4576    
     14720   238.5798      -931.97768     -3659.809       4351.983     
     14730   193.93495     -930.86051     -1794.6017      4344.1835    
     14740   199.3571      -931.11364      268.54299      4334.8051    
     14750   228.41079     -932.02226      2244.5602      4325.7877    
     14760   198.93173     -931.29774      3902.6743      4318.9529    
     14770   174.34776     -930.68517      4585.2187      4315.7497    
     14780   185.87024     -931.06491      4115.6903      4316.7493    
     14790   181.84146     -931.00427      2891.0911      4321.5092    
     14800   168.27475     -930.65996      1228.4562      4328.8888    
     14810   177.54674     -930.92655     -664.41023      4337.335     
     14820   192.93576     -931.34323     -2385.3458      4345.0984    
     14830   197.63245     -931.45557     -3526.0625      4350.5938    
     14840   201.16492     -931.53994     -3884.2394      4352.7757    
     14850   214.81857     -931.91613     -3503.9595      4351.3342    
     14860   218.34545     -932.02478     -2500.6403      4346.6642    
     14870   193.62978     -931.35455     -976.95892      4339.7532    
     14880   178.62992     -930.94404      721.39282      4332.0399    
     14890   183.38114     -931.06619      2234.5603      4325.0958    
     14900   182.96063     -931.03297      3364.4596      4320.3017    
     14910   187.68331     -931.13904      3850.0425      4318.6511    
     14920   203.22352     -931.5469       3443.1234      4320.5302    
     14930   206.29811     -931.61172      2232.4805      4325.5302    
     14940   195.55434     -931.29272      566.0063       4332.5238    
     14950   182.57538     -930.90286     -1150.6836      4339.9696    
     14960   180.40834     -930.79981     -2572.9496      4346.2787    
     14970   192.47217     -931.08097     -3422.0543      4350.1434    
     14980   205.88103     -931.39598     -3522.4667      4350.8028    
     14990   216.57792     -931.64152     -2877.2644      4348.2024    
     15000   205.31792     -931.28541     -1618.4305      4342.9912    
     15010   191.92924     -930.87226     -140.57429      4336.363     
     15020   200.70544     -931.06708      1249.8032      4329.7015    
     15030   191.76678     -930.76223      2486.636       4324.3008    
     15040   185.15324     -930.52094      3298.5111      4321.2649    
     15050   212.17011     -931.21192      3421.4216      4321.2865    
     15060   217.72972     -931.31101      2835.0648      4324.4379    
     15070   205.77128     -930.93592      1492.878       4330.1325    
     15080   222.96271     -931.3735      -338.95922      4337.1119    
     15090   214.97369     -931.11371     -1906.786       4343.7129    
     15100   182.26062     -930.17378     -2894.2353      4348.4905    
     15110   193.32904     -930.451       -3379.4736      4350.5232    
     15120   212.70104     -930.95786     -3113.2712      4349.4137    
     15130   225.32452     -931.28586     -2110.4905      4345.4604    
     15140   229.03167     -931.37939     -700.86914      4339.6282    
     15150   205.33227     -930.72056      791.85371      4333.2494    
     15160   204.34678     -930.69436      1921.5653      4327.6892    
     15170   210.78112     -930.87896      2596.1991      4323.9757    
     15180   176.53917     -929.93639      2929.6218      4322.7151    
     15190   192.7269      -930.39363      2603.0897      4324.1461    
     15200   228.73854     -931.40423      1752.5036      4327.9402    
     15210   195.61541     -930.50258      730.5429       4333.3097    
     15220   199.73641     -930.63731     -616.45668      4339.2643    
     15230   247.03375     -931.98491     -1957.2895      4344.5623    
     15240   222.80697     -931.38502     -2638.9462      4348.0104    
     15250   190.9102      -930.59836     -2801.5706      4348.9758    
     15260   213.43195     -931.35216     -2675.7239      4347.3188    
     15270   206.42806     -931.31647     -1935.9191      4343.2329    
     15280   168.74227     -930.40776     -581.87883      4337.4572    
     15290   173.98046     -930.65221      864.64257      4331.2459    
     15300   206.90664     -931.65186      2057.2042      4325.9287    
     15310   202.23993     -931.60165      2926.8803      4322.5939    
     15320   181.02048     -931.07645      3182.68        4321.9885    
     15330   201.50728     -931.70153      2571.0105      4324.2827    
     15340   212.08177     -932.05311      1396.3421      4328.8948    
     15350   170.49398     -930.94352      60.209507      4334.7372    
     15360   165.46209     -930.82538     -1363.8717      4340.5485    
     15370   191.86559     -931.56486     -2522.5486      4345.0229    
     15380   178.06438     -931.17948     -2950.5419      4347.1292    
     15390   179.05407     -931.20087     -2685.8134      4346.4927    
     15400   206.86909     -931.96247     -1889.5555      4343.3931    
     15410   198.05292     -931.70388     -684.39267      4338.6135    
     15420   188.143       -931.41179      578.6239       4333.2838    
     15430   201.90945     -931.76999      1621.1337      4328.5701    
     15440   202.20288     -931.75075      2306.6535      4325.4217    
     15450   195.59906     -931.54385      2444.5249      4324.4293    
     15460   175.77517     -930.96994      2113.4705      4325.694     
     15470   167.30259     -930.70385      1385.0831      4328.8799    
     15480   189.88032     -931.28328      371.32575      4333.2921    
     15490   203.54055     -931.59787     -657.69151      4337.9926    
     15500   193.36659     -931.24706     -1509.6357      4342.0316    
     15510   196.70059     -931.27219     -2160.7213      4344.6169    
     15520   190.60752     -931.03493     -2331.51        4345.1815    
     15530   186.06569     -930.84381     -1931.0707      4343.6017    
     15540   203.55996     -931.26175     -1153.1732      4340.2714    
     15550   208.89119     -931.34042     -162.38424      4335.9367    
     15560   197.58622     -930.96415      899.41009      4331.5316    
     15570   194.24616     -930.81462      1780.8296      4328.0255    
     15580   191.17869     -930.67472      2279.7862      4326.2073    
     15590   209.25053     -931.12578      2259.0948      4326.5017    
     15600   230.28426     -931.66719      1805.2948      4328.867     
     15610   221.88086     -931.40873      996.01085      4332.8631    
     15620   222.96598     -931.43017     -219.66466      4337.7072    
     15630   211.21904     -931.10423     -1418.2681      4342.2898    
     15640   188.1269      -930.46569     -2260.5394      4345.5155    
     15650   192.7317      -930.59478     -2661.1753      4346.6136    
     15660   200.01639     -930.79847     -2448.6863      4345.2505    
     15670   189.24621     -930.50008     -1574.562       4341.6694    
     15680   200.141       -930.80013     -379.40503      4336.696     
     15690   192.87007     -930.58923      948.70187      4331.4604    
     15700   177.55756     -930.14693      2062.2341      4327.178     
     15710   216.67092     -931.21153      2539.1491      4324.8304    
     15720   225.61487     -931.44469      2608.1434      4324.8533    
     15730   194.62381     -930.58224      2315.5469      4327.2845    
     15740   235.19025     -931.71578      1290.6934      4331.7869    
     15750   262.77462     -932.50967     -78.756671      4337.419     
     15760   210.67167     -931.11596     -1368.3353      4342.9252    
     15770   196.32418     -930.7731      -2622.2933      4347.0839    
     15780   203.7856      -931.04345     -3299.6844      4348.775     
     15790   160.20631     -929.89248     -2907.7374      4347.4352    
     15800   159.60949     -929.91704     -1922.752       4343.4312    
     15810   217.17095     -931.55101     -663.2224       4337.7046    
     15820   219.56118     -931.65732      934.88394      4331.4767    
     15830   193.41373     -930.97372      2319.6962      4326.2003    
     15840   197.67767     -931.13628      2943.982       4323.1007    
     15850   200.0642      -931.25462      2879.7741      4322.7323    
     15860   183.7925      -930.85944      2301.8424      4325.0131    
     15870   172.07672     -930.58441      1305.913       4329.3823    
     15880   190.21881     -931.12952      81.170633      4334.9069    
     15890   225.1601      -932.14675     -1103.2599      4340.4524    
     15900   213.67191     -931.89377     -1957.0363      4344.9337    
     15910   192.49257     -931.38331     -2535.178       4347.5513    
     15920   210.44835     -931.98015     -2842.4694      4347.7767    
     15930   191.1657      -931.56568     -2447.3952      4345.3899    
     15940   154.95486     -930.66532     -1422.7933      4340.7924    
     15950   178.67567     -931.41416     -254.2619       4334.9355    
     15960   186.8506      -931.72613      1061.9295      4328.9373    
     15970   162.62353     -931.11465      2382.956       4324.0173    
     15980   181.35136     -931.67908      3132.68        4321.3365    
     15990   197.63586     -932.17321      3113.4275      4321.5457    
     16000   179.19559     -931.69812      2385.248       4324.5988    
     16010   171.63901     -931.5124       1109.4616      4329.8025    
     16020   171.57693     -931.51578     -356.87029      4335.9786    
     16030   175.58467     -931.61382     -1732.5678      4341.7684    
     16040   181.06148     -931.74105     -2722.6656      4345.9045    
     16050   168.31984     -931.35677     -3012.2034      4347.4977    
     16060   182.11489     -931.70791     -2715.91        4346.2888    
     16070   200.77943     -932.19149     -1874.1938      4342.5888    
     16080   179.81427     -931.57582     -498.00512      4337.2255    
     16090   177.8576      -931.48541      950.05447      4331.4741    
     16100   207.88733     -932.27663      2046.6269      4326.6565    
     16110   197.86199     -931.95905      2752.6205      4323.7823    
     16120   187.34134     -931.63938      2754.456       4323.4534    
     16130   186.35985     -931.58846      2014.4738      4325.6388    
     16140   160.21987     -930.8354       929.64236      4329.6595    
     16150   149.85285     -930.51061     -205.82204      4334.5105    
     16160   173.44138     -931.11039     -1221.5373      4339.1354    
     16170   195.42494     -931.64982     -1906.7224      4342.6005    
     16180   200.42431     -931.7193      -2109.4793      4344.284     
     16190   194.23316     -931.48813     -1877.3724      4344.0083    
     16200   197.68981     -931.53271     -1411.9828      4341.9941    
     16210   197.42059     -931.4771      -734.66938      4338.6982    
     16220   186.80154     -931.13611      139.99173      4334.7719    
     16230   198.81126     -931.42203      1002.1836      4331.0232    
     16240   203.55478     -931.50441      1709.438       4328.2451    
     16250   193.21742     -931.17291      2028.17        4327.067     
     16260   212.09732     -931.65799      1778.3984      4327.7518    
     16270   205.85258     -931.45055      1256.8332      4330.077     
     16280   166.60335     -930.3306       555.6892       4333.5509    
     16290   197.04479     -931.13935     -495.49906      4337.4891    
     16300   217.82687     -931.6678      -1367.0433      4340.9503    
     16310   178.38976     -930.5297      -1763.0902      4343.1447    
     16320   197.68962     -931.02615     -1983.5792      4343.6772    
     16330   213.8489      -931.43014     -1734.1847      4342.3836    
     16340   175.84417     -930.33525     -943.16404      4339.524     
     16350   188.38972     -930.64256     -90.673105      4335.8133    
     16360   219.97469     -931.46567      802.41391      4332.0618    
     16370   208.35917     -931.09223      1682.4068      4329.1036    
     16380   207.3466      -931.02465      2096.1797      4327.7115    
     16390   217.67691     -931.27925      1957.8915      4328.2519    
     16400   221.84535     -931.37376      1361.7098      4330.5889    
     16410   220.03486     -931.31558      401.62873      4334.1595    
     16420   193.72708     -930.58366     -591.37305      4338.0853    
     16430   188.8257      -930.44316     -1403.647       4341.4485    
     16440   214.86162     -931.16008     -1913.2388      4343.4953    
     16450   189.20582     -930.44398     -1864.5736      4343.7788    
     16460   176.13108     -930.0747      -1465.9699      4342.3392    
     16470   231.42191     -931.59933     -942.23684      4339.5438    
     16480   227.11351     -931.47579      28.644307      4335.932     
     16490   187.17973     -930.37253      1072.654       4332.3906    
     16500   213.44885     -931.10977      1532.792       4329.8366    
     16510   228.41933     -931.54281      1652.4636      4328.7162    
     16520   201.57326     -930.83029      1626.7201      4329.147     
     16530   198.33502     -930.7819       1148.4108      4331.0653    
     16540   204.92123     -931.01438      288.31878      4334.0213    
     16550   185.66846     -930.53357     -514.34139      4337.242     
     16560   178.34579     -930.38022     -1108.3161      4339.9826    
     16570   206.96317     -931.22953     -1483.4349      4341.6863    
     16580   225.89653     -931.8322      -1513.3373      4342.0173    
     16590   203.8564      -931.31932     -1169.9617      4340.9589    
     16600   182.10215     -930.81287     -629.03568      4338.829     
     16610   198.96632     -931.37688     -96.964837      4336.1262    
     16620   207.91004     -931.72826      437.33919      4333.3562    
     16630   184.15973     -931.16185      976.83118      4331.0224    
     16640   186.14842     -931.29283      1261.9404      4329.6019    
     16650   194.25663     -931.58408      1297.1179      4329.357     
     16660   184.0434      -931.35411      1148.4697      4330.3199    
     16670   186.56982     -931.4641       697.10317      4332.3351    
     16680   203.37317     -931.96315     -49.039724      4334.9746    
     16690   188.21042     -931.56846     -736.77907      4337.567     
     16700   159.52866     -930.78475     -1178.7046      4339.4804    
     16710   164.76054     -930.92701     -1399.0165      4340.2969    
     16720   183.01376     -931.41636     -1276.8765      4339.8249    
     16730   188.87471     -931.55221     -745.90281      4338.1935    
     16740   200.8027      -931.85254     -73.101179      4335.8865    
     16750   209.66568     -932.06774      460.24419      4333.5168    
     16760   191.0892      -931.52494      826.44514      4331.5844    
     16770   178.9219      -931.16046      1029.0269      4330.4284    
     16780   187.34071     -931.36119      1121.4756      4330.2395    
     16790   196.1286      -931.56577      1025.3599      4331.0934    
     16800   201.37535     -931.6708       613.91746      4332.8852    
     16810   200.44673     -931.60581      19.842904      4335.2379    
     16820   187.89063     -931.21948     -564.85756      4337.6082    
     16830   173.34722     -930.77561     -1068.5723      4339.4507    
     16840   177.92482     -930.85559     -1370.4276      4340.3011    
     16850   189.1687      -931.1116      -1264.3034      4339.8962    
     16860   191.41534     -931.1138      -740.00266      4338.3426    
     16870   201.1577      -931.32459     -51.902023      4336.1173    
     16880   215.42587     -931.66413      584.54429      4333.8543    
     16890   212.81516     -931.54643      982.58439      4332.1364    
     16900   197.38253     -931.08582      1028.3932      4331.3244    
     16910   192.33764     -930.91964      819.48812      4331.4653    
     16920   193.67814     -930.93134      551.63535      4332.3759    
     16930   184.58806     -930.65225      322.05704      4333.8114    
     16940   190.23295     -930.77997      37.131036      4335.5465    
     16950   213.37433     -931.3917      -320.52774      4337.3114    
     16960   213.52321     -931.37141     -576.81519      4338.785     
     16970   200.62535     -930.99762     -680.92135      4339.732     
     16980   227.30885     -931.73061     -804.11804      4340.0378    
     16990   234.64322     -931.9416      -818.62534      4339.6011    
     17000   191.40464     -930.76038     -636.06031      4338.4182    
     17010   178.88962     -930.42728     -378.3616       4336.65      
     17020   198.92599     -930.99058      21.918793      4334.5473    
     17030   180.59837     -930.4817       594.39191      4332.492     
     17040   165.82894     -930.06225      983.58766      4330.9898    
     17050   197.78164     -930.9295       1046.6201      4330.3907    
     17060   210.30459     -931.25128      1072.2563      4330.78      
     17070   204.98142     -931.08316      998.61701      4332.1741    
     17080   218.60773     -931.44754      575.60995      4334.4821    
     17090   234.21995     -931.87732     -163.0238       4337.3096    
     17100   225.19656     -931.64134     -883.70999      4339.9894    
     17110   190.19111     -930.69264     -1320.523       4341.8645    
     17120   184.19826     -930.54524     -1542.2966      4342.5139    
     17130   210.1883      -931.28409     -1508.5329      4341.7314    
     17140   203.5132      -931.11956     -972.87439      4339.575     
     17150   184.99616     -930.62355     -124.77268      4336.538     
     17160   222.6108      -931.68646      550.32188      4333.377     
     17170   218.77541     -931.60941      1155.933       4330.7411    
     17180   166.6461      -930.19127      1552.3485      4329.1857    
     17190   185.89729     -930.74847      1318.8731      4329.0395    
     17200   202.6717      -931.23434      869.78815      4330.1198    
     17210   168.87279     -930.31076      576.11312      4332.0382    
     17220   184.01559     -930.73792      162.29886      4334.491     
     17230   214.59375     -931.5865      -291.92626      4337.0992    
     17240   205.04623     -931.32267     -639.90783      4339.4494    
     17250   213.3849      -931.56317     -1023.4421      4341.1982    
     17260   225.1385      -931.91241     -1282.2869      4341.9971    
     17270   206.37844     -931.43313     -1223.3046      4341.6197    
     17280   200.04087     -931.3149      -997.70545      4340.1053    
     17290   191.80221     -931.15458     -560.93532      4337.674     
     17300   189.51489     -931.16356      35.645068      4334.7344    
     17310   199.40511     -931.51898      627.56834      4331.8333    
     17320   177.52139     -930.99087      1201.7535      4329.5291    
     17330   167.08704     -930.76575      1471.123       4328.3335    
     17340   184.2411      -931.29877      1335.2845      4328.4892    
     17350   183.75834     -931.33556      1074.0271      4329.8957    
     17360   181.3607      -931.30976      678.78617      4332.3089    
     17370   195.61368     -931.74019     -29.072906      4335.3423    
     17380   190.24732     -931.62046     -803.10396      4338.3537    
     17390   179.60549     -931.34656     -1348.8716      4340.6366    
     17400   183.61487     -931.47139     -1557.691       4341.6816    
     17410   192.41494     -931.7228      -1437.4159      4341.2882    
     17420   197.80473     -931.87655     -1018.368       4339.5665    
     17430   197.47563     -931.8693      -376.60945      4336.9071    
     17440   199.72563     -931.93247      290.60903      4333.8976    
     17450   182.43336     -931.44929      908.95878      4331.162     
     17460   163.98517     -930.92488      1322.7414      4329.267     
     17470   176.9925      -931.26014      1413.3066      4328.5906    
     17480   190.254       -931.58627      1271.2925      4329.2277    
     17490   185.90119     -931.4125       895.31685      4331.0493    
     17500   207.3139      -931.94532      192.20287      4333.6942    
     17510   197.9221      -931.61505     -456.31451      4336.5394    
     17520   156.09156     -930.387       -929.06648      4338.9832    
     17530   175.6876      -930.85693     -1381.3508      4340.5601    
     17540   204.06439     -931.54572     -1461.2967      4340.8714    
     17550   183.76307     -930.88516     -985.73112      4339.8565    
     17560   201.40314     -931.28916     -408.5521       4337.9197    
     17570   232.06989     -932.05659      136.87157      4335.5962    
     17580   204.96995     -931.24207      677.21618      4333.4047    
     17590   193.58677     -930.88447      937.76302      4331.8282    
     17600   214.66213     -931.43437      912.13002      4331.1115    
     17610   197.53637     -930.93091      897.5711       4331.2603    
     17620   180.68043     -930.44069      783.16189      4332.2523    
     17630   195.86466     -930.83697      453.51197      4333.9724    
     17640   212.73335     -931.2771       38.830183      4336.1272    
     17650   229.68087     -931.72809     -450.78124      4338.3268    
     17660   215.83377     -931.33873     -867.33769      4340.1237    
     17670   196.39068     -930.80271     -1229.619       4341.1189    
     17680   196.30725     -930.80634     -1449.7816      4340.9706    
     17690   166.06883     -929.96649     -1149.1239      4339.501     
     17700   163.04006     -929.86934     -486.99916      4336.9739    
     17710   222.22357     -931.48469      252.83564      4333.9864    
     17720   228.67728     -931.635        1118.0158      4331.2439    
     17730   193.18528     -930.63411      1749.543       4329.5316    
     17740   220.59481     -931.38715      1725.9654      4329.4079    
     17750   238.35454     -931.88377      1337.9399      4330.8874    
     17760   205.70275     -930.99768      729.76059      4333.6268    
     17770   202.39389     -930.93171     -195.29293      4337.0499    
     17780   215.87113     -931.33607     -1103.933       4340.3168    
     17790   195.93407     -930.81699     -1646.121       4342.5972    
     17800   184.65343     -930.53738     -1872.8689      4343.3618    
     17810   190.90208     -930.74181     -1737.9111      4342.3911    
     17820   196.14885     -930.91709     -1189.7552      4339.8084    
     17830   194.10679     -930.88931     -265.97935      4336.1215    
     17840   183.17826     -930.60832      883.69035      4332.1888    
     17850   203.83307     -931.19952      1750.454       4329.0488    
     17860   233.60517     -932.0551       2064.7739      4327.4979    
     17870   210.76279     -931.47117      1969.7652      4327.8564    
     17880   188.95727     -930.92425      1353.9091      4330.0373    
     17890   202.73997     -931.37225      281.29564      4333.4778    
     17900   181.21124     -930.84092     -622.32912      4337.2346    
     17910   169.38606     -930.56727     -1231.0166      4340.464     
     17920   210.09961     -931.75596     -1699.048       4342.5675    
     17930   211.59767     -931.87231     -1760.1179      4343.1178    
     17940   183.91426     -931.1817      -1452.055       4342.0403    
     17950   193.77259     -931.53301     -1054.294       4339.5877    
     17960   185.46584     -931.37905     -392.58056      4336.1457    
     17970   163.19506     -930.81926      508.70478      4332.3313    
     17980   185.79699     -931.49235      1289.4672      4328.959     
     17990   196.64797     -931.83521      1887.1886      4326.7652    
     18000   187.31898     -931.61409      2114.9609      4326.3062    
     18010   196.28009     -931.90004      1741.4394      4327.7909    
     18020   192.15703     -931.82021      952.23866      4330.9073    
     18030   181.2159      -931.54394     -50.79364       4334.9459    
     18040   174.59614     -931.37565     -1036.1126      4338.9892    
     18050   171.17561     -931.28211     -1769.0828      4342.1224    
     18060   179.95076     -931.51565     -2134.9958      4343.6455    
     18070   180.94338     -931.5229      -2024.2941      4343.2013    
     18080   179.6057      -931.45557     -1461.9002      4340.8717    
     18090   190.83393     -931.72379     -613.18413      4337.1561    
     18100   178.32915     -931.3165       438.79274      4332.8413    
     18110   178.03121     -931.23269      1417.7684      4328.8916    
     18120   213.56293     -932.11782      2086.1049      4326.213     
     18130   203.29094     -931.71682      2430.9906      4325.451     
     18140   175.80385     -930.85203      2169.8766      4326.9301    
     18150   206.94188     -931.61256      1191.4869      4330.4243    
     18160   213.81783     -931.69177      65.751951      4335.0944    
     18170   188.41284     -930.89738     -993.75151      4339.9112    
     18180   198.14078     -931.09554     -2055.8763      4343.8603    
     18190   196.12263     -930.97835     -2671.4315      4345.9553    
     18200   173.1914      -930.2974      -2496.8247      4345.6079    
     18210   182.78133     -930.52708     -1722.3819      4342.9292    
     18220   208.65661     -931.20745     -628.61212      4338.6023    
     18230   224.88166     -931.62626      514.4592       4333.6219    
     18240   211.06098     -931.22365      1587.4662      4329.0545    
     18250   194.32448     -930.74766      2341.0521      4325.8972    
     18260   207.2798      -931.10022      2542.0517      4324.8605    
     18270   205.97704     -931.0628       2248.7805      4326.1757    
     18280   184.77998     -930.47533      1499.6908      4329.6133    
     18290   205.13592     -931.038        313.10803      4334.5078    
     18300   225.76992     -931.6071      -929.44787      4339.7991    
     18310   202.75805     -930.97048     -1886.405       4344.3428    
     18320   199.40741     -930.88398     -2546.4149      4347.2062    
     18330   220.11269     -931.47173     -2768.5948      4347.7347    
     18340   219.22222     -931.47483     -2353.643       4345.6855    
     18350   194.28497     -930.81896     -1336.6411      4341.4041    
     18360   184.13582     -930.56778     -66.813855      4335.7892    
     18370   191.82837     -930.80175      1188.1101      4330.0029    
     18380   189.19798     -930.74172      2253.2556      4325.2159    
     18390   177.67033     -930.42682      2956.7782      4322.4402    
     18400   212.73249     -931.40544      2996.9317      4322.3514    
     18410   227.71999     -931.83815      2460.9769      4325.0582    
     18420   185.57047     -930.69362      1460.7039      4330.1349    
     18430   194.63617     -930.96584     -149.60127      4336.6801    
     18440   226.56283     -931.87026     -1867.4643      4343.2433    
     18450   190.91813     -930.90153     -2930.7493      4348.25      
     18460   182.75947     -930.69551     -3403.6767      4350.6252    
     18470   218.11262     -931.70505     -3312.1218      4349.8426    
     18480   205.58463     -931.39724     -2386.4135      4345.9417    
     18490   188.60042     -930.96737     -900.09007      4339.7144    
     18500   201.35068     -931.35779      688.04706      4332.491     
     18510   196.47579     -931.25389      2193.2688      4325.7492    
     18520   185.96345     -930.98915      3303.7295      4320.8974    
     18530   194.4568      -931.25398      3727.934       4319.0019    
     18540   197.54525     -931.37588      3416.5925      4320.5334    
     18550   194.8905      -931.34414      2341.9972      4325.2899    
     18560   190.07576     -931.24992      626.85772      4332.3593    
     18570   180.72555     -931.0169      -1314.7921      4340.2164    
     18580   173.96512     -930.8403      -2987.6671      4347.0674    
     18590   168.68212     -930.69234     -3936.2379      4351.3099    
     18600   182.19713     -931.06098     -3949.0646      4351.9679    
     18610   204.72276     -931.67709     -3044.4688      4348.9288    
     18620   221.41051     -932.13098     -1500.1486      4342.9456    
     18630   230.47356     -932.37769      297.79595      4335.3987    
     18640   218.5533      -932.0513       1985.1945      4327.9388    
     18650   184.34443     -931.11006      3218.9175      4322.1438    
     18660   178.70313     -930.96145      3661.0243      4319.1881    
     18670   187.19525     -931.20441      3391.8461      4319.5696    
     18680   182.7992      -931.08743      2519.756       4323.1342    
     18690   174.69598     -930.8582       1133.0561      4329.1569    
     18700   177.14399     -930.90323     -472.80615      4336.4211    
     18710   180.79308     -930.958       -1969.4419      4343.4588    
     18720   184.0678      -930.98263     -3146.6066      4348.8414    
     18730   195.13777     -931.21022     -3744.4431      4351.4061    
     18740   214.42352     -931.65992     -3524.4928      4350.5151    
     18750   214.2898      -931.57428     -2446.4989      4346.2937    
     18760   201.13873     -931.136       -830.26623      4339.6701    
     18770   207.17653     -931.22976      897.27663      4332.1015    
     18780   212.83338     -931.30874      2491.8202      4325.1955    
     18790   202.98387     -930.96439      3647.0866      4320.4531    
     18800   200.92446     -930.84954      4025.6681      4318.9878    
     18810   212.16283     -931.11608      3475.5667      4321.2257    
     18820   210.38098     -931.03182      2162.6977      4326.7626    
     18830   201.51165     -930.75545      364.26741      4334.4718    
     18840   214.12397     -931.07122     -1641.102       4342.7246    
     18850   223.22605     -931.28986     -3385.5066      4349.6519    
     18860   183.61322     -930.16615     -4309.113       4353.5838    
     18870   158.75762     -929.45854     -4297.4112      4353.5543    
     18880   192.18712     -930.36478     -3362.6637      4349.4776    
     18890   221.91238     -931.15722     -1483.3884      4342.1727    
     18900   221.16411     -931.10098      900.44491      4333.3442    
     18910   237.1138      -931.51283      2940.0025      4325.1647    
     18920   252.46748     -931.93034      4138.7802      4319.5374    
     18930   213.41917     -930.87151      4415.6083      4317.6359    
     18940   178.44757     -929.93855      3676.0594      4319.7867    
     18950   199.77411     -930.56899      2117.0757      4325.3982    
     18960   205.38992     -930.75989      390.97667      4333.1379    
     18970   185.2441      -930.22546     -1229.9536      4341.4396    
     18980   217.26173     -931.13308     -2818.161       4348.7556    
     18990   254.78866     -932.21422     -3959.1252      4353.572     
     19000   215.78376     -931.20736     -4159.6694      4354.7776    
     19010   181.1568      -930.32989     -3613.6319      4352.0861    
     19020   203.57562     -931.04284     -2536.0261      4345.9343    
     19030   191.94754     -930.8104      -692.27381      4337.3307    
     19040   172.64943     -930.33972      1577.0064      4327.9723    
     19050   199.50026     -931.13372      3525.4154      4319.9364    
     19060   206.49264     -931.37892      4719.1177      4315.0416    
     19070   187.84187     -930.91719      4888.7887      4314.4297    
     19080   194.21894     -931.15511      3956.9579      4318.3216    
     19090   201.38824     -931.41372      2228.8129      4325.9546    
     19100   202.66571     -931.49787      5.1191929      4335.7979    
     19110   201.64224     -931.50076     -2327.9255      4345.8162    
     19120   200.0567      -931.47438     -4228.8303      4353.8244    
     19130   201.64718     -931.53569     -5225.7016      4357.9941    
     19140   197.60735     -931.45072     -5126.1427      4357.3146    
     19150   184.94675     -931.1315      -3930.6496      4351.8166    
     19160   187.17061     -931.21777     -1855.4713      4342.5798    
     19170   189.24617     -931.27974      720.39688      4331.5268    
     19180   179.43639     -930.98796      3235.2525      4321.043     
     19190   185.224       -931.11649      5042.5604      4313.4432    
     19200   192.8983      -931.30132      5759.1431      4310.4076    
     19210   195.79922     -931.3701       5241.8072      4312.6366    
     19220   194.27884     -931.32855      3594.232       4319.7236    
     19230   182.41798     -930.99416      1153.0603      4330.2274    
     19240   193.48511     -931.27566     -1603.0122      4341.9367    
     19250   208.97446     -931.6607      -3959.5704      4352.3074    
     19260   200.07521     -931.36999     -5427.3044      4359.0984    
     19270   195.31557     -931.21146     -5877.3927      4360.8562    
     19280   193.47641     -931.1521      -5072.6468      4357.1167    
     19290   183.15875     -930.86192     -2993.8152      4348.6213    
     19300   204.72091     -931.44294     -326.6513       4337.2792    
     19310   214.30857     -931.67112      2342.0686      4325.5721    
     19320   190.55863     -930.96517      4569.9187      4315.9785    
     19330   203.0504      -931.27086      5776.4937      4310.5318    
     19340   197.95817     -931.10273      5819.9169      4310.3603    
     19350   172.61086     -930.3878       4614.0626      4315.5332    
     19360   204.93791     -931.27093      2230.6357      4324.9806    
     19370   208.83451     -931.34335     -442.68825      4336.5947    
     19380   173.96661     -930.32486     -2784.2534      4347.9237    
     19390   202.25438     -931.04693     -4713.071       4356.7296    
     19400   229.83569     -931.74587     -5735.4622      4361.1795    
     19410   205.43398     -931.02943     -5485.5742      4360.2899    
     19420   208.51243     -931.10141     -4231.3435      4354.25      
     19430   220.23195     -931.41854     -2145.7648      4344.2412    
     19440   193.7777      -930.66847      571.692        4332.2404    
     19450   175.22761     -930.11826      3302.2326      4320.7667    
     19460   188.80418     -930.44022      5385.246       4312.3212    
     19470   217.8774      -931.19114      6331.3674      4308.7964    
     19480   223.43548     -931.31175      5922.1403      4311.0589    
     19490   203.33156     -930.74519      4192.6649      4318.7607    
     19500   218.4054      -931.15719      1429.6882      4330.3538    
     19510   224.64723     -931.30807     -1628.2546      4343.3392    
     19520   192.70191     -930.38634     -4261.7044      4354.8882    
     19530   208.21127     -930.78079     -6112.1038      4362.494     
     19540   236.94587     -931.56261     -6657.2203      4364.4006    
     19550   197.82572     -930.49714     -5616.1868      4360.0953    
     19560   176.61222     -929.94116     -3464.5742      4350.5399    
     19570   215.02705     -931.02713     -689.94264      4337.7678    
     19580   211.36771     -930.92314      2528.1968      4324.4188    
     19590   192.86844     -930.39403      5362.6968      4313.4454    
     19600   211.7251      -930.91014      6845.826       4307.3856    
     19610   222.2522      -931.22976      6727.7503      4307.573     
     19620   202.44195     -930.74406      5182.3664      4313.9118    
     19630   190.38435     -930.48169      2521.0995      4325.0142    
     19640   204.19503     -930.92207     -696.81289      4338.4646    
     19650   218.5039      -931.3631      -3651.1118      4351.3072    
     19660   213.63319     -931.27614     -5650.7952      4360.7813    
     19670   213.64433     -931.34738     -6476.8247      4364.9737    
     19680   221.55062     -931.67536     -6126.3069      4363.0867    
     19690   200.11357     -931.2111      -4537.7696      4355.483     
     19700   174.56513     -930.6121      -1983.6754      4343.6942    
     19710   180.09887     -930.8368       961.86334      4330.1338    
     19720   186.72894     -931.05718      3809.6017      4317.551     
     19730   173.03052     -930.68899      6068.5726      4308.5495    
     19740   182.21532     -930.95572      7062.3135      4305.1285    
     19750   208.21038     -931.71008      6425.8478      4308.1435    
     19760   207.86312     -931.75213      4333.7816      4317.0121    
     19770   191.42641     -931.34084      1296.1196      4329.844     
     19780   192.52248     -931.38711     -2019.9126      4343.8587    
     19790   195.44537     -931.4574      -4819.3651      4355.9871    
     19800   190.23453     -931.29689     -6521.8857      4363.6018    
     19810   194.04491     -931.40376     -6876.202       4365.094     
     19820   196.48319     -931.49501     -5780.006       4360.1605    
     19830   189.54511     -931.33296     -3433.2892      4349.8863    
     19840   183.72659     -931.18303     -383.22875      4336.5179    
     19850   186.5781      -931.24023      2715.2307      4322.9197    
     19860   192.1868      -931.34868      5285.7856      4311.9414    
     19870   190.71396     -931.25814      6847.3669      4305.8892    
     19880   197.95635     -931.42775      6931.1903      4306.1094    
     19890   204.28374     -931.59135      5422.1531      4312.6285    
     19900   190.85138     -931.20818      2700.3716      4324.0666    
     19910   187.13153     -931.07078     -645.66441      4337.9334    
     19920   196.77305     -931.26763     -3852.4278      4351.1417    
     19930   177.14968     -930.63232     -6066.7162      4360.7192    
     19940   175.26457     -930.49703     -6916.212       4364.5891    
     19950   202.49161     -931.17802     -6252.6622      4361.9849    
     19960   198.3319      -930.99448     -4104.2026      4353.6061    
     19970   202.57052     -931.0431      -1137.2407      4341.5146    
     19980   241.9116      -932.0469       1892.6372      4328.5065    
     19990   233.36845     -931.72273      4511.9736      4317.3963    
     20000   197.97913     -930.68167      6093.2188      4310.5299    
     20010   208.62399     -930.94769      6219.2352      4309.2683    
     20020   213.54946     -931.07996      5122.4442      4313.6897    
     20030   194.54628     -930.56266      3054.0649      4322.762     
     20040   188.89992     -930.40635      275.77506      4334.5634    
     20050   200.52421     -930.70543     -2607.7932      4346.5317    
     20060   205.69193     -930.8123      -4837.5889      4356.0043    
     20070   192.37705     -930.41369     -5904.9654      4360.9163    
     20080   196.2769      -930.51095     -5726.8655      4360.2905    
     20090   224.55143     -931.30336     -4348.6747      4354.3525    
     20100   206.72021     -930.82428     -1896.6839      4344.4792    
     20110   191.06779     -930.39377      855.01172      4332.9837    
     20120   228.276       -931.41709      3167.3958      4322.4096    
     20130   221.79564     -931.23308      4903.4255      4314.8837    
     20140   186.84672     -930.27261      5709.5841      4311.932     
     20150   216.40731     -931.12113      5177.0532      4314.2005    
     20160   242.48845     -931.89607      3554.4614      4321.1707    
     20170   220.93806     -931.36374      1202.6096      4331.3354    
     20180   206.24283     -931.0123      -1497.5678      4342.5105    
     20190   199.70603     -930.87106     -3890.2616      4352.2031    
     20200   184.13018     -930.46853     -5375.1287      4358.2055    
     20210   177.68788     -930.32077     -5670.9374      4359.1581    
     20220   180.04824     -930.41986     -4685.2058      4354.8466    
     20230   208.6293      -931.24621     -2725.8395      4346.254     
     20240   211.77273     -931.35852     -87.901844      4335.282     
     20250   176.89288     -930.39428      2665.7872      4324.4044    
     20260   192.3068      -930.80877      4632.1828      4316.1045    
     20270   224.87406     -931.7045       5522.8887      4312.133     
     20280   206.23289     -931.20101      5413.7632      4313.2556    
     20290   210.98641     -931.36605      4051.4904      4319.2891    
     20300   234.55168     -932.06253      1656.4018      4328.9481    
     20310   201.50127     -931.18041     -969.00332      4340.0468    
     20320   180.25932     -930.60325     -3398.4149      4350.1413    
     20330   198.47109     -931.10867     -5145.107       4356.9796    
     20340   197.73122     -931.09401     -5601.0249      4358.9865    
     20350   187.11085     -930.818       -4766.1231      4355.7835    
     20360   189.83435     -930.91419     -2995.5871      4348.2091    
     20370   199.21464     -931.18395     -630.38281      4337.984     
     20380   200.24961     -931.20471      1907.9139      4327.3468    
     20390   201.79818     -931.229        3980.8265      4318.6175    
     20400   199.46229     -931.14814      5112.9706      4313.642     
     20410   190.13009     -930.88572      5076.2423      4313.3823    
     20420   181.20894     -930.6428       4003.4557      4317.752     
     20430   194.62758     -931.01706      2215.959       4325.7371    
     20440   210.64518     -931.45187      17.019506      4335.6721    
     20450   213.38301     -931.50924     -2258.7852      4345.5107    
     20460   209.70816     -931.3883      -4027.1773      4353.1589    
     20470   203.69653     -931.21264     -4856.6803      4356.9973    
     20480   196.22612     -931.01027     -4665.2298      4356.2882    
     20490   203.00647     -931.21458     -3627.2502      4351.2593    
     20500   201.41982     -931.18786     -1826.2229      4342.9587    
     20510   196.2532      -931.05233      423.124        4333.1152    
     20520   194.19986     -930.98868      2619.5171      4323.8215    
     20530   188.72436     -930.82018      4254.9863      4317.0673    
     20540   194.72847     -930.97263      4886.5215      4314.2811    
     20550   196.75793     -931.02361      4485.3315      4315.9834    
     20560   196.47976     -931.01657      3203.9201      4321.7615    
     20570   213.60034     -931.49036      1217.0977      4330.4015    
     20580   210.84984     -931.40513     -1022.3329      4340.066     
     20590   188.96905     -930.78043     -3036.7652      4348.6856    
     20600   204.15569     -931.18171     -4544.5886      4354.3866    
     20610   198.49599     -931.01089     -4992.5842      4355.8194    
     20620   164.81387     -930.07025     -4161.9713      4352.6321    
     20630   186.88248     -930.66927     -2404.8502      4345.6491    
     20640   228.60216     -931.7849      -72.98741       4336.5657    
     20650   223.67603     -931.58632      2303.7733      4327.5662    
     20660   228.06575     -931.64694      3902.7183      4320.7923    
     20670   245.6134      -932.08585      4397.9033      4317.6591    
     20680   210.47557     -931.08913      3966.4532      4318.584     
     20690   165.30779     -929.82779      2675.1077      4323.1175    
     20700   161.08238     -929.68829      853.72736      4330.0487    
     20710   185.34843     -930.30613     -881.61423      4337.7097    
     20720   202.34613     -930.69009     -2127.0747      4344.502     
     20730   212.73152     -930.8778      -2882.9221      4349.2616    
     20740   241.76369     -931.58542     -3273.9708      4351.2826    
     20750   243.35241     -931.55266     -3097.9915      4350.2467    
     20760   207.60285     -930.51682     -2249.3165      4346.3696    
     20770   194.69817     -930.12778     -945.29047      4340.4749    
     20780   223.60112     -930.89519      470.03083      4333.7888    
     20790   222.29469     -930.82483      1902.8262      4327.6431    
     20800   202.4757      -930.25073      3035.5548      4323.3377    
     20810   225.53825     -930.87838      3354.815       4321.8516    
     20820   237.40157     -931.21554      2918.5248      4323.4498    
     20830   195.32297     -930.07297      2013.4255      4327.7202    
     20840   195.74151     -930.10991      581.11038      4333.7863    
     20850   233.34311     -931.18025     -1035.2463      4340.3228    
     20860   212.29543     -930.63191     -2201.3304      4345.8662    
     20870   194.38851     -930.17532     -2968.9164      4349.3162    
     20880   224.48755     -931.06388     -3275.2237      4349.9723    
     20890   227.48926     -931.22539     -2779.2142      4347.6082    
     20900   202.38159     -930.61789     -1595.8911      4342.7205    
     20910   210.00718     -930.91877     -171.10641      4336.4185    
     20920   215.13534     -931.15308      1297.3732      4330.0448    
     20930   197.41463     -930.74573      2555.3601      4324.9511    
     20940   194.96699     -930.75301      3183.1066      4322.2526    
     20950   197.12905     -930.88288      3063.5383      4322.4937    
     20960   204.62243     -931.15761      2225.5193      4325.5333    
     20970   203.86156     -931.19872      967.60237      4330.5922    
     20980   187.36574     -930.7882      -350.74433      4336.5119    
     20990   193.59521     -930.99258     -1605.0993      4342.059     
     21000   209.58726     -931.46218     -2544.8194      4346.0761    
     21010   198.52015     -931.18064     -2805.6789      4347.7217    
     21020   201.57542     -931.29225     -2493.7737      4346.7604    
     21030   218.1631      -931.78484     -1813.2282      4343.4952    
     21040   201.5317      -931.35737     -735.48125      4338.6004    
     21050   189.05751     -931.03849      494.16522      4333.0867    
     21060   191.88284     -931.1346       1583.224       4328.088     
     21070   183.97008     -930.92381      2399.7245      4324.6041    
     21080   185.12032     -930.95881      2720.6322      4323.3585    
     21090   200.1334      -931.3769       2371.408       4324.6111    
     21100   198.44892     -931.33142      1523.2908      4328.0319    
     21110   186.48314     -930.99754      426.13481      4332.8352    
     21120   187.41303     -931.01324     -732.89259      4338.0006    
     21130   191.02812     -931.09399     -1698.4143      4342.4585    
     21140   189.4213      -931.02349     -2235.0804      4345.3247    
     21150   209.20722     -931.54551     -2341.7813      4346.102     
     21160   221.26818     -931.85766     -1990.7576      4344.7103    
     21170   202.0071      -931.31016     -1266.5061      4341.494     
     21180   192.40491     -931.03312     -405.22784      4337.133     
     21190   207.856       -931.44781      505.19677      4332.4404    
     21200   195.62694     -931.09055      1490.2         4328.2764    
     21210   181.96524     -930.69051      2215.6087      4325.5263    
     21220   204.73663     -931.29739      2384.781       4324.8261    
     21230   202.3761      -931.20331      2125.757       4326.3308    
     21240   185.50332     -930.70617      1399.4665      4329.781     
     21250   207.53481     -931.28016      165.72857      4334.4812    
     21260   217.08186     -931.49506     -1056.6041      4339.3145    
     21270   186.50485     -930.59442     -1822.1099      4343.1692    
     21280   178.44469     -930.31445     -2234.2633      4345.316     
     21290   203.05336     -930.92234     -2328.4087      4345.3723    
     21300   212.75276     -931.09833     -1885.351       4343.284     
     21310   205.11879     -930.78953     -908.61694      4339.4868    
     21320   215.22995     -930.9699       269.0141       4334.8868    
     21330   237.1651      -931.47461      1347.0069      4330.5718    
     21340   225.60079     -931.06417      2184.7056      4327.5387    
     21350   209.96321     -930.56575      2467.0311      4326.5317    
     21360   229.13033     -931.04934      2025.6452      4327.7842    
     21370   223.42324     -930.85735      1154.2305      4330.898     
     21380   186.48511     -929.81069      91.720173      4335.0685    
     21390   191.26604     -929.92044     -973.04474      4339.3078    
     21400   221.30644     -930.72516     -1676.2901      4342.6456    
     21410   230.17991     -930.95108     -1911.7141      4344.431     
     21420   225.18225     -930.81169     -1793.8633      4344.4395    
     21430   224.28808     -930.8049      -1422.0079      4342.784     
     21440   213.09672     -930.52629     -823.62177      4339.8245    
     21450   188.3862      -929.87445     -62.143232      4336.1277    
     21460   187.19882     -929.86774      743.60729      4332.4057    
     21470   226.21153     -930.97761      1395.6954      4329.3951    
     21480   242.41284     -931.47563      1894.4291      4327.7034    
     21490   208.68331     -930.6088       2104.4583      4327.7794    
     21500   209.34659     -930.70609      1644.4202      4329.7754    
     21510   230.21374     -931.38335      717.92979      4333.2721    
     21520   212.16195     -930.9929      -196.77228      4337.4395    
     21530   205.96683     -930.92719     -1128.1556      4341.4104    
     21540   222.0521      -931.48158     -2003.4788      4344.3114    
     21550   206.43579     -931.15125     -2331.0352      4345.363     
     21560   185.1354      -930.63762     -2020.0714      4344.2695    
     21570   199.98632     -931.10691     -1414.3053      4341.3039    
     21580   201.28843     -931.18621     -603.99147      4337.0438    
     21590   173.80214     -930.44782      403.82642      4332.2607    
     21600   167.61379     -930.28065      1421.2595      4327.8869    
     21610   189.35209     -930.87519      2217.3953      4324.8519    
     21620   198.55575     -931.11703      2627.1915      4323.8787    
     21630   203.3974      -931.2415       2481.5563      4325.3268    
     21640   224.2629      -931.81858      1744.4009      4329.0507    
     21650   230.24673     -931.99446      565.55797      4334.3719    
     21660   215.26351     -931.59955     -878.5147       4340.196     
     21670   200.11917     -931.2027      -2222.2946      4345.1918    
     21680   190.82633     -930.96684     -3050.5229      4348.1225    
     21690   186.97124     -930.88057     -3121.0218      4348.2274    
     21700   196.08976     -931.15466     -2466.8281      4345.4462    
     21710   198.96153     -931.254       -1257.6451      4340.4002    
     21720   191.42907     -931.05884      199.01979      4334.2199    
     21730   188.14858     -930.97243      1553.7798      4328.2537    
     21740   188.1479      -930.96886      2538.1117      4323.7459    
     21750   184.73739     -930.86591      3000.9449      4321.5933    
     21760   184.02284     -930.83472      2904.5121      4322.2122    
     21770   198.3314      -931.21679      2255.6119      4325.5058    
     21780   213.28722     -931.61389      1095.1007      4330.8678    
     21790   200.31973     -931.23407     -331.63727      4337.2332    
     21800   199.08804     -931.17696     -1779.6964      4343.2775    
     21810   212.05159     -931.51133     -2829.8947      4347.667     
     21820   198.75921     -931.12154     -3132.9906      4349.4381    
     21830   196.75381     -931.05118     -2854.7861      4348.2927    
     21840   225.36047     -931.83505     -2115.1056      4344.4941    
     21850   212.7321      -931.48099     -754.96522      4338.7752    
     21860   180.83598     -930.59238      790.49939      4332.393     
     21870   183.81691     -930.6622       1926.0666      4326.7506    
     21880   189.5824      -930.79819      2670.4232      4322.9091    
     21890   185.25727     -930.64825      3077.9755      4321.5574    
     21900   195.10238     -930.88831      2886.7919      4323.0425    
     21910   211.29729     -931.29918      2017.4181      4327.1754    
     21920   226.91689     -931.6929       671.08954      4333.1598    
     21930   219.29194     -931.44569     -832.82691      4339.7605    
     21940   195.13837     -930.74404     -2239.3697      4345.5809    
     21950   197.42031     -930.7765      -3315.93        4349.3046    
     21960   188.21567     -930.48906     -3547.62        4349.9571    
     21970   175.84929     -930.1128      -2804.8239      4347.3369    
     21980   212.17617     -931.07722     -1497.55        4342.1261    
     21990   241.8849      -931.84477      66.989796      4335.5512    
     22000   215.22504     -931.05558      1691.9708      4329.0811    
     22010   212.11467     -930.93152      2896.1173      4324.1948    
     22020   229.33074     -931.38053      3385.0728      4321.9834    
     22030   213.13233     -930.91937      3117.5387      4322.8888    
     22040   192.60568     -930.35035      2151.3448      4326.6577    
     22050   199.85861     -930.55006      730.30966      4332.4066    
     22060   218.82532     -931.07002     -836.81251      4338.8271    
     22070   199.41586     -930.52444     -2114.6629      4344.4814    
     22080   182.79035     -930.05592     -2952.919       4348.1698    
     22090   206.83852     -930.71595     -3225.222       4349.1076    
     22100   220.16694     -931.08443     -2690.9126      4347.0636    
     22110   201.68562     -930.57882     -1440.252       4342.5499    
     22120   214.35801     -930.94121     -40.183915      4336.7114    
     22130   236.02154     -931.56228      1255.4802      4330.8544    
     22140   210.46439     -930.88828      2416.1698      4326.1956    
     22150   204.80034     -930.77954      2957.3032      4323.7699    
     22160   224.07084     -931.3847       2688.2864      4324.0566    
     22170   205.30866     -930.95525      1958.9275      4326.8293    
     22180   175.73903     -930.22004      939.94604      4331.4178    
     22190   191.96106     -930.74601     -353.23502      4336.8649    
     22200   209.81598     -931.31774     -1533.4189      4341.9885    
     22210   204.09568     -931.23624     -2312.9798      4345.698     
     22220   208.82039     -931.44711     -2693.8667      4347.2527    
     22230   211.98759     -931.62247     -2579.9533      4346.303     
     22240   187.47091     -931.02431     -1866.6363      4342.974     
     22250   174.83768     -930.73592     -749.06366      4337.9318    
     22260   184.18884     -931.03904      570.13594      4332.2224    
     22270   185.76695     -931.11001      1843.406       4327.0695    
     22280   192.96586     -931.32719      2671.77        4323.6277    
     22290   207.61032     -931.75183      2894.0603      4322.6506    
     22300   196.2185      -931.45792      2565.0554      4324.3451    
     22310   185.8736      -931.19083      1657.6841      4328.3985    
     22320   204.53324     -931.72366      320.78059      4333.974     
     22330   202.69629     -931.68205     -1033.0778      4339.8546    
     22340   191.69293     -931.38203     -2258.3885      4344.7728    
     22350   193.24574     -931.42855     -3124.0547      4347.5852    
     22360   172.88701     -930.86478     -3174.3255      4347.5113    
     22370   154.88287     -930.35849     -2397.5235      4344.5091    
     22380   186.45872     -931.21313     -1140.7143      4339.2924    
     22390   214.45724     -931.94875      471.03592      4333.052     
     22400   209.36026     -931.76115      2078.9763      4327.2804    
     22410   207.89915     -931.68038      3047.5392      4323.4262    
     22420   204.9806      -931.56698      3160.2051      4322.3692    
     22430   193.90259     -931.23419      2501.4601      4324.2147    
     22440   190.61123     -931.11766      1290.9026      4328.3609    
     22450   174.20949     -930.62715      37.762423      4333.72      
     22460   173.55458     -930.55962     -1051.3592      4339.1314    
     22470   200.14628     -931.22828     -1934.9013      4343.5695    
     22480   202.71216     -931.21744     -2416.8245      4346.2155    
     22490   201.06262     -931.09339     -2475.9502      4346.6142    
     22500   223.9206      -931.65267     -2149.5609      4344.7066    
     22510   214.44735     -931.32304     -1243.4925      4340.8276    
     22520   178.88248     -930.28119      35.52815       4335.8232    
     22530   199.34744     -930.793        1127.5355      4330.8517    
     22540   225.37365     -931.45136      2027.4208      4326.9403    
     22550   202.12197     -930.75412      2691.0411      4324.9272    
     22560   214.29111     -931.05725      2579.8608      4325.3779    
     22570   237.15162     -931.67031      1797.1551      4328.1981    
     22580   208.80225     -930.87954      735.52428      4332.69      
     22590   183.01335     -930.16259     -493.96818      4337.867     
     22600   208.44798     -930.86243     -1722.8722      4342.5822    
     22610   212.54116     -930.97034     -2455.023       4345.7178    
     22620   186.91903     -930.25958     -2567.3866      4346.5869    
     22630   178.47186     -930.02393     -2204.9037      4345.0708    
     22640   204.55416     -930.74277     -1470.6679      4341.5075    
     22650   221.08789     -931.1971      -285.15178      4336.6062    
     22660   216.13004     -931.06102      1134.1354      4331.4721    
     22670   222.65873     -931.25079      2207.6214      4327.39      
     22680   235.45105     -931.62957      2619.1115      4325.3348    
     22690   208.23378     -930.91155      2553.1691      4325.7057    
     22700   193.36807     -930.5347       1935.3489      4328.4332    
     22710   227.56052     -931.52183      644.91659      4332.9266    
     22720   206.95475     -930.9894      -696.46359      4338.0345    
     22730   174.17223     -930.10702     -1776.2875      4342.5162    
     22740   201.30633     -930.87925     -2460.0647      4345.3575    
     22750   215.44892     -931.29344     -2474.8404      4345.9338    
     22760   192.62735     -930.6856      -1924.7902      4344.2224    
     22770   199.44203     -930.89948     -1177.0129      4340.7132    
     22780   211.37137     -931.25486     -212.75041      4336.1213    
     22790   197.39747     -930.88927      899.29729      4331.3542    
     22800   195.65152     -930.8601       1788.3646      4327.4232    
     22810   197.70119     -930.93402      2341.329       4325.1513    
     22820   197.19267     -930.93769      2466.9257      4325.0465    
     22830   205.08849     -931.1774       2006.4075      4327.2122    
     22840   216.53882     -931.52158      1049.2445      4331.2286    
     22850   208.19727     -931.32164     -125.64098      4336.2266    
     22860   195.78413     -931.00782     -1347.1202      4341.1149    
     22870   197.34253     -931.07992     -2278.7806      4344.7654    
     22880   191.19107     -930.93685     -2539.4875      4346.3265    
     22890   201.74794     -931.25934     -2277.6423      4345.5318    
     22900   219.84593     -931.80018     -1571.189       4342.6242    
     22910   204.73145     -931.4272      -500.53135      4338.2715    
     22920   191.36281     -931.10176      468.49831      4333.4451    
     22930   193.75797     -931.21105      1204.1986      4329.0469    
     22940   175.9052      -930.75235      1906.2201      4325.7848    
     22950   161.29511     -930.37055      2341.5644      4324.2938    
     22960   188.19369     -931.13349      2169.8587      4324.9495    
     22970   197.55493     -931.40488      1611.003       4327.6169    
     22980   192.82053     -931.28269      772.68068      4331.786     
     22990   202.33435     -931.55362     -295.81519      4336.6764    
     23000   193.59675     -931.31336     -1272.7579      4341.3139    
     23010   202.22136     -931.55338     -2087.8847      4344.7763    
     23020   224.52333     -932.18005     -2537.6615      4346.3036    
     23030   199.7213      -931.51311     -2295.7891      4345.4956    
     23040   177.87034     -930.93275     -1608.0103      4342.556     
     23050   195.7487      -931.4539      -729.04296      4338.114     
     23060   189.41936     -931.29928      404.52033      4333.0102    
     23070   176.1951      -930.94509      1500.9926      4328.2876    
     23080   201.54599     -931.65772      2181.3726      4324.9397    
     23090   196.68248     -931.53242      2545.336       4323.6158    
     23100   167.89076     -930.74208      2427.4829      4324.6434    
     23110   177.95179     -931.02245      1580.6856      4327.8953    
     23120   194.02988     -931.45582      358.69778      4332.6175    
     23130   177.62593     -930.97434     -772.14162      4337.7078    
     23140   174.47883     -930.84851     -1720.0785      4342.1045    
     23150   199.65861     -931.49256     -2299.4131      4344.9232    
     23160   224.08918     -932.10679     -2344.4067      4345.6216    
     23170   209.66478     -931.65039     -1848.4373      4344.1532    
     23180   196.96638     -931.25207     -1067.3522      4340.9616    
     23190   217.47708     -931.77513     -213.10877      4336.7664    
     23200   210.54602     -931.5369       724.33256      4332.3761    
     23210   174.9177      -930.50639      1573.2271      4328.6592    
     23220   186.77793     -930.79054      1953.0954      4326.3771    
     23230   206.21767     -931.2739       1969.979       4325.8994    
     23240   191.05513     -930.79668      1767.094       4327.2603    
     23250   194.55188     -930.83997      1130.8298      4330.2577    
     23260   209.35938     -931.19126      118.97944      4334.3066    
     23270   190.476       -930.60675     -771.71463      4338.5046    
     23280   179.64448     -930.24744     -1393.96        4342.0213    
     23290   209.97772     -931.02397     -1856.9958      4344.2522    
     23300   232.72838     -931.58915     -1997.469       4344.7657    
     23310   214.87779     -931.04667     -1618.7035      4343.4396    
     23320   205.51307     -930.75631     -930.14547      4340.6063    
     23330   220.62354     -931.15142     -149.5603       4336.8956    
     23340   220.57799     -931.13425      652.841        4333.0367    
     23350   197.09166     -930.47424      1391.5075      4329.7795    
     23360   204.909       -930.68685      1815.8238      4327.796     
     23370   217.59138     -931.03886      1940.4629      4327.4934    
     23380   211.79425     -930.88788      1721.5911      4328.994     
     23390   210.81006     -930.87928      1037.2106      4332.0942    
     23400   216.68224     -931.06827     -20.641926      4336.1696    
     23410   206.63867     -930.82094     -1113.3318      4340.2588    
     23420   192.88701     -930.47212     -1922.8569      4343.3521    
     23430   186.73639     -930.33196     -2223.6012      4344.692     
     23440   194.31476     -930.5718      -2010.0173      4343.9783    
     23450   206.72096     -930.94787     -1322.1205      4341.3979    
     23460   218.41496     -931.31158     -301.0177       4337.5816    
     23470   226.16129     -931.57994      717.55143      4333.4618    
     23480   221.91153     -931.53571      1407.0718      4329.9695    
     23490   194.40303     -930.85709      1791.0364      4327.7606    
     23500   172.94021     -930.33883      1881.4621      4327.2043    
     23510   187.60312     -930.81727      1579.0428      4328.3888    
     23520   213.18411     -931.60514      953.01749      4331.0526    
     23530   209.49375     -931.58883      164.45111      4334.6361    
     23540   192.1         -931.18692     -697.84717      4338.4121    
     23550   190.74453     -931.21963     -1477.6368      4341.5778    
     23560   190.16133     -931.26338     -1911.9903      4343.4091    
     23570   195.98346     -931.47687     -1947.1293      4343.4815    
     23580   205.44308     -931.78886     -1584.1455      4341.7427    
     23590   190.16926     -931.40736     -815.07285      4338.5231    
     23600   181.32265     -931.19014      57.346327      4334.5113    
     23610   185.57468     -931.32341      841.19651      4330.5086    
     23620   168.56648     -930.85225      1573.1381      4327.2596    
     23630   166.61742     -930.78687      2042.612       4325.4411    
     23640   188.59314     -931.37677      2118.027       4325.4989    
     23650   192.92581     -931.47293      1863.2783      4327.5362    
     23660   206.26586     -931.82179      1127.4988      4331.3278    
     23670   229.38001     -932.44761     -41.957019      4336.2112    
     23680   210.1365      -931.90771     -1264.6212      4341.1303    
     23690   178.63961     -931.02944     -2281.2305      4344.9438    
     23700   188.13317     -931.2857      -2884.7666      4346.6785    
     23710   182.79868     -931.12658     -2697.6713      4345.7611    
     23720   155.51647     -930.35295     -1812.5716      4342.3228    
     23730   169.00186     -930.69766     -611.32214      4337.1404    
     23740   216.65633     -931.97046      770.06463      4331.3227    
     23750   213.51738     -931.82802      2213.2905      4326.1632    
     23760   188.47349     -931.08946      3064.6663      4322.9741    
     23770   205.49497     -931.52613      2969.0182      4322.5531    
     23780   206.64176     -931.52673      2354.9972      4324.8942    
     23790   177.80049     -930.70003      1414.1917      4329.4854    
     23800   189.98966     -931.00744      16.199565      4335.4682    
     23810   208.86268     -931.48725     -1481.7926      4341.5774    
     23820   192.32484     -930.98176     -2603.182       4346.4295    
     23830   198.28759     -931.10551     -3196.6791      4348.935     
     23840   209.51844     -931.37936     -3090.543       4348.4949    
     23850   193.14982     -930.89485     -2310.748       4345.1549    
     23860   187.62061     -930.71353     -1049.6605      4339.5933    
     23870   187.17376     -930.66284      592.51867      4332.9714    
     23880   206.02122     -931.13626      2124.6886      4326.7889    
     23890   237.34294     -931.95574      3094.3755      4322.4617    
     23900   212.12035     -931.22493      3498.07        4320.9388    
     23910   183.61037     -930.41985      3117.9476      4322.6342    
     23920   218.99865     -931.39295      1872.9035      4327.2477    
     23930   210.03308     -931.13447      419.28719      4333.7316    
     23940   176.56598     -930.19338     -1057.2464      4340.7655    
     23950   214.5683      -931.22887     -2591.6537      4346.9452    
     23960   219.16962     -931.33731     -3503.7803      4350.8425    
     23970   183.6578      -930.34344     -3606.7706      4351.5427    
     23980   215.27985     -931.22276     -3234.1157      4348.8407    
     23990   212.90701     -931.16437     -1995.5508      4343.0673    
     24000   170.33989     -929.98695     -27.862103      4335.3398    
     24010   191.34946     -930.55898      1859.5761      4327.4243    
     24020   212.41469     -931.11714      3414.7979      4321.0895    
     24030   207.53332     -930.95757      4363.8219      4317.8087    
     24040   227.62553     -931.50776      4251.0593      4318.4949    
     24050   224.22114     -931.42624      3191.032       4323.1465    
     24060   211.69267     -931.10768      1347.3774      4330.8766    
     24070   220.52775     -931.39074     -932.69402      4340.0458    
     24080   202.51983     -930.93579     -2912.5458      4348.581     
     24090   186.75631     -930.54877     -4309.3927      4354.5835    
     24100   204.17855     -931.10269     -5020.6627      4356.6451    
     24110   193.0939      -930.89137     -4567.6286      4354.0313    
     24120   168.57096     -930.30626     -2898.1899      4347.0871    
     24130   187.32491     -930.90978     -583.67776      4337.2852    
     24140   199.53884     -931.31749      1961.82        4326.7584    
     24150   198.15725     -931.33319      4180.0818      4317.8629    
     24160   213.06888     -931.80642      5390.4702      4312.6557    
     24170   201.43297     -931.56068      5403.7851      4312.3263    
     24180   173.11586     -930.8527       4231.7615      4316.9921    
     24190   182.76365     -931.18668      2059.2269      4325.686     
     24200   194.48        -931.55846     -445.69868      4336.5185    
     24210   191.5453      -931.50062     -2761.2998      4347.2034    
     24220   204.08651     -931.86168     -4641.985       4355.5287    
     24230   200.05103     -931.76899     -5581.087       4359.6626    
     24240   177.26058     -931.16577     -5295.0391      4358.6246    
     24250   191.92122     -931.60847     -4042.0262      4352.5634    
     24260   205.59045     -932.02254     -1972.1466      4342.5919    
     24270   168.90041     -931.01921      755.20143      4330.6292    
     24280   161.82578     -930.80641      3448.8127      4319.1817    
     24290   190.22145     -931.5553       5477.5827      4310.7422    
     24300   174.97496     -931.08998      6462.3712      4307.2238    
     24310   165.8023      -930.80695      5944.7679      4309.5872    
     24320   201.33539     -931.76389      4016.8081      4317.4751    
     24330   208.20322     -931.90731      1355.5476      4329.2654    
     24340   191.36675     -931.37651     -1626.6633      4342.5667    
     24350   199.96491     -931.53115     -4470.5538      4354.599     
     24360   198.95528     -931.41135     -6344.5984      4362.6621    
     24370   184.21242     -930.93091     -6797.447       4364.8919    
     24380   189.57827     -931.03318     -5837.9972      4360.7421    
     24390   203.37028     -931.37633     -3615.7378      4351.0413    
     24400   208.81044     -931.47924     -557.55167      4337.8335    
     24410   198.49456     -931.12758      2734.8801      4323.9599    
     24420   194.83906     -930.94834      5495.3516      4312.4627    
     24430   217.69747     -931.51316      7002.3103      4305.8822    
     24440   216.63596     -931.44848      7007.5347      4305.6505    
     24450   176.70259     -930.34094      5553.8471      4311.8643    
     24460   172.92792     -930.24132      2739.9697      4323.286     
     24470   206.38492     -931.14635     -740.67359      4337.4283    
     24480   190.21947     -930.64383     -3763.9648      4351.1364    
     24490   184.9337      -930.43505     -5965.0212      4361.5221    
     24500   225.02809     -931.49706     -7078.3332      4366.4187    
     24510   221.32174     -931.37951     -6576.4264      4364.7181    
     24520   189.63455     -930.51744     -4628.0375      4356.8214    
     24530   210.29654     -931.10941     -1897.3593      4344.5028    
     24540   222.98823     -931.46241      1308.0005      4330.3354    
     24550   199.03789     -930.77964      4441.0012      4317.3061    
     24560   210.21971     -931.06823      6594.3174      4308.2747    
     24570   231.0594      -931.65057      7326.166       4305.2242    
     24580   217.27027     -931.31337      6475.6546      4308.864     
     24590   203.01889     -930.98606      4036.4968      4318.476     
     24600   188.55057     -930.63779      636.43382      4331.9175    
     24610   176.23401     -930.3093      -2822.9196      4346.1115    
     24620   182.66019     -930.47006     -5543.8581      4357.8307    
     24630   173.69066     -930.19625     -6845.8506      4364.4826    
     24640   185.43896     -930.51118     -6703.6458      4364.7541    
     24650   232.89283     -931.8373      -5292.0329      4358.7206    
     24660   227.14422     -931.70249     -2632.1073      4347.7239    
     24670   202.8619      -931.04884      573.40582      4334.2436    
     24680   209.75931     -931.24198      3467.8742      4321.2461    
     24690   200.63308     -930.98123      5705.8635      4311.4191    
     24700   196.29674     -930.86271      6850.2518      4306.8043    
     24710   224.12348     -931.667        6439.5431      4308.4309    
     24720   216.03828     -931.50577      4629.1785      4315.9699    
     24730   185.5165      -930.72224      1822.7852      4327.8225    
     24740   194.77021     -931.01819     -1467.8815      4341.4392    
     24750   194.90446     -931.03544     -4389.9974      4353.7899    
     24760   181.45507     -930.66565     -6307.5834      4362.1168    
     24770   189.99323     -930.91969     -6888.9295      4364.5694    
     24780   192.7029      -931.03441     -5935.5809      4360.5816    
     24790   191.53131     -931.05228     -3690.4949      4351.0444    
     24800   199.48436     -931.31267     -682.30476      4338.0747    
     24810   201.69829     -931.39271      2501.3338      4324.4934    
     24820   190.20138     -931.07624      5243.5117      4313.2435    
     24830   195.95367     -931.24574      6825.0421      4306.8017    
     24840   209.68265     -931.67038      6868.9084      4306.587     
     24850   205.64827     -931.64478      5391.2343      4312.6467    
     24860   183.5322      -931.13276      2726.4265      4323.6675    
     24870   187.29363     -931.32586     -592.96642      4337.2338    
     24880   190.72854     -931.49214     -3681.6506      4350.3054    
     24890   169.3768      -930.95331     -5851.2423      4359.9916    
     24900   175.82608     -931.18572     -6834.1274      4364.2142    
     24910   200.45339     -931.94853     -6377.3715      4362.0412    
     24920   189.27292     -931.73321     -4414.4015      4353.9333    
     24930   181.82919     -931.60662     -1527.2909      4341.7477    
     24940   194.12532     -931.99898      1561.5022      4328.1962    
     24950   184.14119     -931.74468      4291.8899      4316.1493    
     24960   162.77685     -931.15574      6133.0889      4308.0906    
     24970   164.99146     -931.22158      6645.8845      4305.6543    
     24980   175.22837     -931.51822      5764.2893      4309.2852    
     24990   175.32121     -931.53247      3721.4518      4318.1852    
     25000   168.03197     -931.32037      934.74757      4330.504     
     25010   193.16047     -931.97227     -2109.6559      4343.6787    
     25020   218.91117     -932.61134     -4674.7252      4354.8911    
     25030   190.21476     -931.74317     -6138.5506      4361.742     
     25040   164.56113     -930.98202     -6386.8118      4362.8363    
     25050   185.70422     -931.53099     -5398.7544      4357.957     
     25060   186.83507     -931.51699     -3137.5986      4348.0982    
     25070   182.07403     -931.3239      -171.09137      4335.4105    
     25080   199.24987     -931.71184      2760.3424      4322.663     
     25090   191.40138     -931.39026      5157.5683      4312.5556    
     25100   171.83247     -930.75837      6476.0953      4307.2326    
     25110   180.47658     -930.93315      6361.4944      4307.836     
     25120   198.23668     -931.37764      4906.1763      4314.2371    
     25130   209.83311     -931.66002      2418.5846      4325.1025    
     25140   200.65077     -931.36239     -569.38621      4338.1581    
     25150   188.76179     -930.97741     -3506.1543      4350.6364    
     25160   206.90854     -931.42032     -5773.6574      4359.7968    
     25170   198.89481     -931.15304     -6626.8457      4363.5456    
     25180   165.4855      -930.20748     -5934.8847      4361.1059    
     25190   193.69796     -930.9838      -4158.2497      4353.1496    
     25200   218.73814     -931.6606      -1429.638       4341.4279    
     25210   196.2217      -931.00228      1786.2712      4328.5382    
     25220   209.76263     -931.332        4413.4778      4317.4166    
     25230   229.13658     -931.82834      5911.7826      4310.4317    
     25240   201.89641     -931.05912      6191.9022      4308.9049    
     25250   186.45249     -930.64196      5169.562       4313.0296    
     25260   192.89801     -930.83622      3088.1385      4321.8444    
     25270   186.24803     -930.65065      447.57749      4333.4393    
     25280   191.51239     -930.77098     -2284.1651      4345.3701    
     25290   209.10194     -931.21491     -4541.6236      4355.1009    
     25300   210.14094     -931.20372     -5764.42        4360.5435    
     25310   209.01669     -931.15596     -5717.5721      4360.5803    
     25320   205.91058     -931.0744      -4425.0479      4355.311     
     25330   206.72147     -931.10801     -2290.6553      4346.0004    
     25340   211.64618     -931.24785      190.37944      4334.6902    
     25350   205.04159     -931.0564       2620.3583      4323.7117    
     25360   183.98445     -930.45509      4563.0858      4315.2871    
     25370   180.31124     -930.33625      5512.02        4311.1263    
     25380   192.39692     -930.66093      5342.4191      4312.0352    
     25390   210.81537     -931.16894      4137.5428      4317.8091    
     25400   219.61865     -931.41298      2086.284       4327.3114    
     25410   216.92321     -931.33404     -448.91569      4338.639     
     25420   216.67555     -931.31563     -2950.7121      4349.4455    
     25430   224.75573     -931.53371     -4922.697       4357.406     
     25440   201.48293     -930.90207     -5782.0592      4360.7205    
     25450   184.65455     -930.47029     -5410.9497      4358.6279    
     25460   200.73482     -930.96616     -3901.4612      4351.5478    
     25470   197.38991     -930.92283     -1384.7554      4340.9871    
     25480   184.23579     -930.58874      1459.333       4329.3251    
     25490   201.3875      -931.08093      3794.0777      4319.1695    
     25500   204.4176      -931.18464      5284.0294      4312.6297    
     25510   189.94776     -930.81893      5691.3915      4310.9954    
     25520   199.89649     -931.15032      4776.9557      4314.5479    
     25530   209.32819     -931.48356      2825.5592      4322.4063    
     25540   179.7579      -930.7271       505.01577      4332.7803    
     25550   175.55847     -930.65102     -1872.7648      4343.5031    
     25560   207.49529     -931.56505     -3849.3867      4352.3736    
     25570   226.21847     -932.12666     -4977.2717      4357.5748    
     25580   208.5802      -931.70579     -5057.2073      4358.0964    
     25590   195.71393     -931.4339      -4217.9737      4353.9159    
     25600   197.8035      -931.58185     -2550.7013      4345.902     
     25610   186.93591     -931.3584      -278.75982      4335.684     
     25620   169.23718     -930.91585      2087.0899      4325.3942    
     25630   175.98891     -931.12743      3982.2036      4317.1881    
     25640   187.76633     -931.4721       5000.7555      4312.7425    
     25650   174.62804     -931.12782      4958.5135      4312.9128    
     25660   172.23316     -931.08193      3844.4145      4317.5883    
     25670   187.23349     -931.5095       1960.8154      4325.7087    
     25680   187.01826     -931.49599     -185.54931      4335.5322    
     25690   186.82912     -931.46417     -2237.4351      4345.0631    
     25700   196.71271     -931.69811     -3864.7997      4352.401     
     25710   212.34433     -932.09217     -4783.5501      4356.054     
     25720   201.44876     -931.76433     -4650.0515      4355.2324    
     25730   173.29061     -930.96798     -3490.6859      4350.1333    
     25740   186.13357     -931.30194     -1724.3878      4341.8936    
     25750   208.77068     -931.88423      452.30728      4332.2236    
     25760   177.74137     -930.95852      2772.428       4323.1693    
     25770   176.33647     -930.84689      4366.8725      4316.795     
     25780   215.35443     -931.84494      4809.433       4314.4837    
     25790   193.48403     -931.15675      4347.795       4316.597     
     25800   179.62757     -930.70792      2921.3099      4322.6362    
     25810   214.34885     -931.59437      790.44052      4331.2516    
     25820   199.72157     -931.09794     -1270.8707      4340.4987    
     25830   183.82725     -930.5738      -3032.1743      4348.4535    
     25840   210.21502     -931.22607     -4304.6092      4353.4832    
     25850   199.53431     -930.86423     -4556.7812      4354.4712    
     25860   175.53678     -930.15834     -3716.3881      4351.2464    
     25870   193.54123     -930.62587     -2106.042       4344.648     
     25880   211.90707     -931.09744     -16.682554      4336.2369    
     25890   231.56609     -931.60795      2010.054       4327.9599    
     25900   234.45487     -931.66892      3546.7384      4321.6659    
     25910   212.46419     -931.06042      4267.1572      4318.7127    
     25920   214.86018     -931.14702      3875.7468      4319.6793    
     25930   217.50162     -931.25378      2616.9004      4324.1647    
     25940   194.20463     -930.64061      949.50211      4330.9952    
     25950   188.49854     -930.50353     -868.88486      4338.6089    
     25960   191.78996     -930.60236     -2406.8518      4345.331     
     25970   193.42718     -930.64813     -3325.1406      4349.7538    
     25980   210.8608      -931.13699     -3610.2534      4351.0399    
     25990   203.3013      -930.94212     -3189.8558      4348.9724    
     26000   184.87644     -930.44797     -2073.0829      4344.003     
     26010   204.63284     -931.00889     -525.94445      4337.2096    
     26020   205.02688     -931.02509      1225.6591      4330.0595    
     26030   191.3979      -930.64599      2700.3546      4324.1523    
     26040   220.19393     -931.44812      3440.6969      4320.7924    
     26050   221.83913     -931.51187      3601.384       4320.6399    
     26060   200.61179     -930.9564       3064.6325      4323.7868    
     26070   217.81314     -931.47711      1610.7852      4329.6741    
     26080   224.51024     -931.71481     -261.10116      4336.9623    
     26090   197.68443     -931.0225      -1940.1729      4343.9388    
     26100   195.7594      -931.01844     -3255.262       4349.0372    
     26110   193.36544     -931.00447     -3860.0253      4351.068     
     26120   176.8979      -930.59991     -3533.0875      4349.5183    
     26130   175.12297     -930.59739     -2440.2801      4344.7335    
     26140   183.01368     -930.85058     -800.53961      4337.7786    
     26150   198.75541     -931.30832      1035.868       4330.2009    
     26160   208.28942     -931.58826      2648.4065      4323.6899    
     26170   191.11524     -931.12769      3710.7122      4319.6991    
     26180   187.88607     -931.05734      3895.0943      4319.1443    
     26190   206.86623     -931.61027      3144.3631      4322.1449    
     26200   205.64046     -931.60792      1728.074       4327.9889    
     26210   195.88244     -931.36727     -34.415112      4335.358     
     26220   198.31799     -931.45937     -1769.6143      4342.6203    
     26230   190.38676     -931.26        -3046.6402      4348.1818    
     26240   181.09026     -931.02176     -3625.0069      4350.8729    
     26250   200.3065      -931.58004     -3507.5191      4350.1766    
     26260   219.36046     -932.1477      -2692.2051      4346.2477    
     26270   190.72484     -931.40294     -1218.0849      4339.9008    
     26280   151.74123     -930.35724      494.70688      4332.5233    
     26290   170.88347     -930.9068       1927.676       4325.6872    
     26300   192.56078     -931.5166       3082.2045      4320.7196    
     26310   174.767       -931.02649      3845.5114      4318.6562    
     26320   190.67058     -931.47234      3641.2117      4320.1165    
     26330   228.02491     -932.5172       2427.2811      4324.8713    
     26340   198.8403      -931.72024      804.54519      4331.8187    
     26350   165.21131     -930.79181     -990.57913      4339.4444    
     26360   188.10278     -931.41574     -2712.0969      4346.0752    
     26370   187.5608      -931.37586     -3679.4147      4350.1552    
     26380   172.21844     -930.92234     -3700.3013      4350.8072    
     26390   202.75264     -931.73746     -3021.324       4348.0227    
     26400   213.69976     -931.99921     -1675.2613      4342.4872    
     26410   189.3342      -931.27838     -1.8989864      4335.4778    
     26420   188.59959     -931.20556      1492.6178      4328.5401    
     26430   196.93928     -931.37085      2675.5815      4323.0576    
     26440   183.19087     -930.91832      3424.7611      4320.1008    
     26450   185.74785     -930.92048      3416.541       4320.3037    
     26460   196.32833     -931.1409       2721.0867      4323.6366    
     26470   206.77905     -931.35532      1448.6408      4329.4376    
     26480   214.45696     -931.49187     -206.81353      4336.5203    
     26490   204.86948     -931.15349     -1811.7364      4343.3619    
     26500   189.92822     -930.6735      -2983.9084      4348.4843    
     26510   197.80974     -930.83321     -3566.3721      4350.8004    
     26520   198.60145     -930.80189     -3331.4196      4349.803     
     26530   194.44503     -930.64188     -2377.8164      4345.7381    
     26540   206.18306     -930.92432     -1005.2054      4339.5142    
     26550   208.41098     -930.94002      709.89489      4332.4463    
     26560   211.89861     -930.99162      2391.0091      4326.1203    
     26570   224.05889     -931.29183      3419.6359      4322.0411    
     26580   224.61662     -931.28908      3575.4041      4321.1216    
     26590   213.75451     -930.99042      3009.9363      4323.4914    
     26600   211.01371     -930.92994      1797.6316      4328.6062    
     26610   203.78476     -930.746        131.05412      4335.337     
     26620   202.0679      -930.71065     -1626.4077      4342.1435    
     26630   196.3202      -930.55953     -2941.3746      4347.4145    
     26640   183.34645     -930.20618     -3436.0425      4349.9463    
     26650   194.15944     -930.51357     -3157.9413      4349.2829    
     26660   218.88496     -931.21116     -2263.6122      4345.7001    
     26670   220.81334     -931.28426     -867.38217      4340.0641    
     26680   212.98582     -931.09384      683.86634      4333.6825    
     26690   213.80272     -931.14842      1972.6758      4327.9828    
     26700   221.00874     -931.39289      2730.7757      4324.1379    
     26710   208.28542     -931.10141      2919.5614      4322.8332    
     26720   180.92041     -930.40808      2514.2082      4324.2198    
     26730   176.59626     -930.34683      1603.1376      4327.9101    
     26740   199.12736     -931.02683      445.1105       4333.0643    
     26750   206.55247     -931.28833     -702.91744      4338.6149    
     26760   204.80284     -931.29706     -1756.2902      4343.4877    
     26770   215.45856     -931.65966     -2565.1949      4346.7027    
     26780   207.40072     -931.51582     -2815.9703      4347.531     
     26790   185.3371      -930.98489     -2439.2043      4345.7535    
     26800   179.46908     -930.89257     -1538.2563      4341.7368    
     26810   199.74871     -931.51887     -337.84678      4336.3296    
     26820   196.97344     -931.49896      1011.5373      4330.6628    
     26830   180.6075      -931.08735      2146.359       4325.9721    
     26840   200.20539     -931.66714      2648.8518      4323.2709    
     26850   201.71664     -931.74707      2628.8082      4323.0234    
     26860   160.39017     -930.62886      2223.3533      4325.2093    
     26870   169.33604     -930.89056      1225.0222      4329.4197    
     26880   206.72569     -931.92848     -85.333234      4334.7389    
     26890   187.23513     -931.37883     -1168.7034      4339.9841    
     26900   181.40224     -931.20365     -2102.4914      4344.1238    
     26910   206.36082     -931.88005     -2749.2987      4346.289     
     26920   189.83952     -931.40775     -2612.7855      4345.9209    
     26930   172.87071     -930.92485     -1790.7592      4343.151     
     26940   198.71622     -931.62478     -709.10322      4338.7336    
     26950   212.92724     -931.99768      472.19172      4333.6883    
     26960   199.76298     -931.6148       1559.7178      4329.114     
     26970   194.82024     -931.46384      2210.0056      4325.9945    
     26980   195.78171     -931.47837      2296.4377      4324.9179    
     26990   191.57904     -931.35204      1876.2899      4325.9577    
     27000   168.57366     -930.70057      1191.072       4328.7351    
     27010   166.29412     -930.61521      334.31432      4332.6111    
     27020   191.58154     -931.28149     -600.68613      4336.7874    
     27030   187.20728     -931.11573     -1343.6631      4340.4081    
     27040   173.41005     -930.68795     -1760.4274      4342.7843    
     27050   199.89162     -931.37484     -1863.004       4343.5224    
     27060   223.95334     -931.99313     -1575.0405      4342.5386    
     27070   218.63162     -931.80975     -959.457        4340.107     
     27080   212.04141     -931.6063      -212.11331      4336.7976    
     27090   197.66211     -931.19289      561.53658      4333.3102    
     27100   185.41059     -930.83767      1210.0178      4330.3591    
     27110   192.93575     -931.02736      1573.7174      4328.535     
     27120   196.96723     -931.11636      1611.2156      4328.1713    
     27130   199.97409     -931.177        1308.6422      4329.2968    
     27140   205.80247     -931.31735      774.06755      4331.6343    
     27150   192.71933     -930.93285      165.3736       4334.6961    
     27160   194.99578     -930.97287     -585.57988      4337.9018    
     27170   208.59954     -931.32379     -1320.0895      4340.5569    
     27180   192.87073     -930.86082     -1681.6201      4342.001     
     27190   185.0784      -930.61904     -1666.8289      4341.891     
     27200   193.16208     -930.81249     -1279.6992      4340.2444    
     27210   190.08007     -930.68861     -526.63893      4337.4318    
     27220   199.77992     -930.91316      343.64218      4334.145     
     27230   221.92665     -931.47759      1109.4363      4331.1856    
     27240   223.75632     -931.48374      1697.5184      4329.2674    
     27250   219.10037     -931.32483      1870.7756      4328.9185    
     27260   218.7899      -931.30026      1462.0584      4330.2844    
     27270   209.24304     -931.02905      633.40268      4332.9946    
     27280   201.84761     -930.82175     -292.31995      4336.2978    
     27290   203.63974     -930.87035     -1036.11        4339.3451    
     27300   195.78419     -930.65126     -1437.008       4341.4484    
     27310   188.91384     -930.45806     -1541.2319      4342.2236    
     27320   201.98706     -930.81546     -1390.5695      4341.5691    
     27330   216.45575     -931.21201     -944.16136      4339.6329    
     27340   204.9941      -930.89335     -255.1474       4336.8361    
     27350   200.08822     -930.76004      396.53111      4333.8045    
     27360   207.54885     -930.97227      926.02206      4331.1446    
     27370   192.59612     -930.56429      1400.8594      4329.36      
     27380   189.37551     -930.48094      1599.304       4328.8751    
     27390   228.51287     -931.57721      1329.2396      4329.8578    
     27400   226.21979     -931.54001      848.21209      4332.0801    
     27410   180.54795     -930.30765      229.66356      4335.0984    
     27420   197.47552     -930.81139     -613.35713      4338.3197    
     27430   232.20399     -931.81949     -1236.8104      4340.9896    
     27440   210.48946     -931.27822     -1413.2619      4342.5388    
     27450   201.72481     -931.10358     -1493.1914      4342.766     
     27460   221.46733     -931.73488     -1469.3205      4341.5953    
     27470   193.63162     -931.052       -979.08243      4339.0842    
     27480   168.46292     -930.42472     -225.67243      4335.6771    
     27490   186.17457     -930.97369      496.25166      4332.0591    
     27500   192.90919     -931.20998      1197.8439      4328.9128    
     27510   186.72481     -931.08003      1746.7795      4326.8845    
     27520   184.93683     -931.06561      1942.1207      4326.4706    
     27530   182.21626     -931.01747      1689.064       4327.8482    
     27540   191.11224     -931.28542      1011.9874      4330.7842    
     27550   191.54803     -931.3118       180.92459      4334.6712    
     27560   194.09463     -931.38968     -676.73108      4338.7404    
     27570   222.8256      -932.19453     -1513.1676      4342.1847    
     27580   221.4483      -932.17503     -2005.1335      4344.2401    
     27590   189.03853     -931.30227     -2063.7283      4344.4449    
     27600   194.98416     -931.49553     -1869.4304      4342.7217    
     27610   191.84922     -931.4359      -1200.5393      4339.2752    
     27620   158.29166     -930.51904     -36.457323      4334.7428    
     27630   177.41839     -931.04881      1040.9318      4330.1695    
     27640   201.51717     -931.7023       1849.8943      4326.5551    
     27650   182.73618     -931.15981      2368.1938      4324.6576    
     27660   185.51539     -931.21374      2310.8872      4324.9359    
     27670   194.78228     -931.43937      1706.149       4327.344     
     27680   185.54638     -931.14315      760.80569      4331.3393    
     27690   189.32633     -931.19809     -311.54944      4336.056     
     27700   191.73592     -931.20031     -1214.5537      4340.5122    
     27710   195.18343     -931.22135     -1878.3736      4343.8578    
     27720   218.87665     -931.79774     -2257.2004      4345.461     
     27730   208.22479     -931.42363     -2053.8901      4344.9865    
     27740   198.27612     -931.08172     -1458.9542      4342.6058    
     27750   224.98607     -931.75953     -763.68146      4338.8544    
     27760   200.56046     -931.02245      173.07782      4334.4067    
     27770   169.37938     -930.1063       1099.0706      4330.1219    
     27780   193.34155     -930.71423      1752.7262      4326.846     
     27790   200.484       -930.84541      2223.184       4325.2025    
     27800   198.315       -930.72462      2315.4774      4325.6177    
     27810   228.24158     -931.50298      1792.5247      4328.1613    
     27820   217.82978     -931.17396      936.27239      4332.38      
     27830   200.8212      -930.67635     -216.20967      4337.4776    
     27840   217.40775     -931.11596     -1506.2595      4342.3818    
     27850   201.5375      -930.65896     -2356.8831      4345.9217    
     27860   186.75886     -930.23705     -2669.621       4347.2897    
     27870   217.22447     -931.07546     -2540.789       4346.1699    
     27880   214.5901      -931.00281     -1731.3072      4342.7053    
     27890   193.83852     -930.43169     -464.52976      4337.6422    
     27900   214.61272     -931.01233      796.38873      4332.1363    
     27910   216.74752     -931.07699      1991.7104      4327.3747    
     27920   202.37017     -930.68844      2792.4942      4324.4499    
     27930   215.50842     -931.0713       2851.8868      4324.0822    
     27940   224.05803     -931.33846      2338.5453      4326.3511    
     27950   216.17407     -931.16029      1314.6907      4330.791     
     27960   204.44224     -930.87596     -172.53921      4336.4536    
     27970   194.48911     -930.63164     -1642.7813      4341.9841    
     27980   195.12354     -930.6728      -2616.1516      4346.0282    
     27990   194.22424     -930.66795     -2887.3586      4347.67      
     28000   192.34344     -930.63366     -2506.8666      4346.6385    
     28010   216.25063     -931.31644     -1723.1969      4343.267     
     28020   225.88122     -931.6108      -619.6789       4338.2906    
     28030   192.44197     -930.70957      715.03141      4332.748     
     28040   192.77254     -930.73748      1793.7075      4327.8518    
     28050   210.33587     -931.24095      2444.7601      4324.6013    
     28060   191.95808     -930.74786      2745.6086      4323.6156    
     28070   188.01117     -930.65325      2501.5639      4325.1648    
     28080   229.61455     -931.82609      1552.085       4329.0156    
     28090   227.91916     -931.80789      296.14393      4334.3259    
     28100   184.95987     -930.64487     -959.149        4339.9471    
     28110   185.38249     -930.67473     -2150.2557      4344.6947    
     28120   205.29539     -931.24046     -2877.8726      4347.4673    
     28130   191.75614     -930.8785      -2797.051       4347.5947    
     28140   191.17842     -930.87597     -2173.2762      4345.1198    
     28150   218.8798      -931.65905     -1234.7966      4340.6104    
     28160   214.72724     -931.56213      66.407053      4334.9615    
     28170   186.25125     -930.78793      1413.5553      4329.3741    
     28180   184.59416     -930.74972      2340.8457      4325.073     
     28190   198.41733     -931.13626      2770.1455      4322.9233    
     28200   199.94782     -931.18319      2712.7271      4323.3318    
     28210   193.58391     -931.01354      2118.3887      4326.25      
     28220   195.20465     -931.06356      1025.4098      4331.137     
     28230   201.77778     -931.24521     -328.36556      4336.9983    
     28240   207.34471     -931.39535     -1628.8239      4342.5878    
     28250   204.68372     -931.31803     -2580.077       4346.6965    
     28260   204.02725     -931.30219     -3069.9891      4348.4183    
     28270   194.83339     -931.05595     -2899.2015      4347.2935    
     28280   173.63241     -930.47498     -1948.9825      4343.4874    
     28290   181.37442     -930.68587     -567.10637      4337.8668    
     28300   215.48962     -931.61507      860.36632      4331.7049    
     28310   216.89775     -931.63255      2223.3266      4326.3411    
     28320   206.80147     -931.33857      3118.5531      4323.0195    
     28330   216.55011     -931.60689      3160.3824      4322.548     
     28340   203.88372     -931.26546      2490.0116      4324.9887    
     28350   174.14449     -930.45125      1323.7527      4329.7478    
     28360   195.93908     -931.05917     -266.7119       4335.7457    
     28370   203.59849     -931.26258     -1717.5805      4341.5408    
     28380   178.73118     -930.55707     -2633.1995      4345.7893    
     28390   184.69695     -930.70132     -2984.7275      4347.6104    
     28400   196.52486     -930.99694     -2678.9958      4346.6672    
     28410   198.21296     -931.00141     -1793.5698      4343.2344    
     28420   215.03643     -931.4165      -543.11161      4338.1283    
     28430   217.54523     -931.42632      896.25396      4332.5179    
     28440   207.729       -931.09585      2102.3086      4327.7234    
     28450   215.20283     -931.25023      2665.6473      4324.8423    
     28460   212.75338     -931.13664      2641.4303      4324.4128    
     28470   200.2053      -930.75257      2157.5388      4326.4325    
     28480   210.86059     -931.01679      1212.0201      4330.4575    
     28490   212.28502     -931.02424      59.951484      4335.6366    
     28500   205.5426      -930.80741     -1134.9298      4340.9031    
     28510   207.4241      -930.83158     -2190.3322      4345.1407    
     28520   205.62615     -930.75711     -2799.5202      4347.3662    
     28530   204.22922     -930.70119     -2784.7157      4347.0027    
     28540   193.19539     -930.38291     -2121.1551      4344.0556    
     28550   174.58935     -929.84985     -921.79162      4339.1392    
     28560   201.27933     -930.56182      463.82698      4333.3545    
     28570   235.18265     -931.46376      1818.2374      4327.9908    
     28580   216.61538     -930.91934      2924.3697      4324.3064    
     28590   215.45003     -930.87542      3221.8628      4323.2926    
     28600   242.40061     -931.63152      2612.4903      4325.2297    
     28610   218.49117     -930.99757      1617.3443      4329.6118    
     28620   203.58208     -930.62171      308.84535      4335.5251    
     28630   232.67683     -931.4758      -1273.6683      4341.7476    
     28640   215.75915     -931.06591     -2572.7607      4346.8334    
     28650   183.13359     -930.22121     -3330.2844      4349.5563    
     28660   189.27776     -930.45107     -3412.0209      4349.1895    
     28670   198.83296     -930.78043     -2606.606       4345.6597    
     28680   183.54653     -930.41397     -1047.6704      4339.7147    
     28690   193.79583     -930.74359      659.81032      4332.7744    
     28700   218.36074     -931.46719      2167.2415      4326.4216    
     28710   216.51121     -931.46575      3268.5421      4322.0565    
     28720   200.41635     -931.07741      3613.77        4320.6845    
     28730   198.69391     -931.09308      3023.424       4322.624     
     28740   203.09093     -931.28072      1759.7121      4327.3655    
     28750   194.25995     -931.09568      235.84896      4333.7782    
     28760   183.54119     -930.84257     -1235.5954      4340.4661    
     28770   196.96447     -931.24809     -2495.0233      4346.0482    
     28780   208.54586     -931.60203     -3253.9794      4349.343     
     28790   197.20617     -931.32541     -3272.5312      4349.6313    
     28800   186.17728     -931.05613     -2594.7414      4346.8763    
     28810   211.30563     -931.78977     -1492.2343      4341.6868    
     28820   216.24863     -931.96521     -27.916674      4335.1023    
     28830   184.55734     -931.11731      1508.7573      4328.48      
     28840   180.49249     -931.02312      2620.2002      4323.2218    
     28850   194.02767     -931.41241      3162.7945      4320.3584    
     28860   164.21372     -930.59266      3262.4969      4320.4192    
     28870   160.7581      -930.49629      2631.5906      4323.4853    
     28880   197.57089     -931.504        1284.2325      4328.9886    
     28890   196.94046     -931.45847     -243.86377      4335.7321    
     28900   189.32619     -931.21334     -1660.8036      4342.3057    
     28910   202.46397     -931.53851     -2739.5554      4347.3822    
     28920   209.08466     -931.68368     -3269.9768      4349.94      
     28930   209.93873     -931.67968     -3179.9956      4349.4612    
     28940   206.91742     -931.57943     -2440.2228      4346.0187    
     28950   193.76665     -931.20175     -1164.9993      4340.2971    
     28960   191.79454     -931.12927      340.67918      4333.4731    
     28970   187.54735     -930.98242      1871.553       4326.9508    
     28980   188.72575     -930.97715      3068.5506      4322.139     
     28990   211.59981     -931.57204      3550.679       4320.1299    
     29000   208.29675     -931.44692      3284.6753      4321.3863    
     29010   186.56016     -930.81903      2235.3718      4325.6777    
     29020   189.75383     -930.87845      537.94061      4332.0534    
     29030   180.47105     -930.57449     -1133.3064      4338.9925    
     29040   171.81191     -930.27231     -2376.1537      4344.9506    
     29050   205.76541     -931.1341      -3149.013       4348.7366    
     29060   222.16038     -931.49337     -3207.9746      4349.6198    
     29070   212.33299     -931.13311     -2538.4796      4347.5265    
     29080   226.22153     -931.43835     -1445.6666      4343.0517    
     29090   219.55978     -931.17397     -86.935354      4337.2144    
     29100   200.30838     -930.56593      1235.8659      4331.2709    
     29110   224.22447     -931.15359      2177.5189      4326.4349    
     29120   224.97216     -931.09689      2844.133       4323.6069    
     29130   199.90216     -930.33725      3010.8235      4323.4014    
     29140   213.71079     -930.66127      2293.2272      4325.9556    
     29150   221.09139     -930.79702      1069.9003      4330.6526    
     29160   190.25711     -929.86566     -165.04687      4336.4042    
     29170   200.93399     -930.06974     -1423.3783      4342.0473    
     29180   233.41776     -930.83741     -2410.0737      4346.4137    
     29190   227.74014     -930.52354     -2750.8366      4348.585     
     29200   215.66971     -930.03914     -2511.5864      4348.2116    
     29210   237.45129     -930.49609     -1901.3488      4345.4845    
     29220   247.95174     -930.64897     -915.15053      4340.9739    
     29230   230.23613     -930.05395      337.22011      4335.5976    
     29240   221.31485     -929.73428      1555.7353      4330.5107    
     29250   241.38732     -930.24101      2384.4491      4326.8312    
     29260   251.13172     -930.49099      2701.2639      4325.3363    
     29270   239.05133     -930.17123      2486.5499      4326.3363    
     29280   234.87361     -930.09633      1745.8776      4329.6516    
     29290   237.17435     -930.21818      569.86674      4334.615     
     29300   221.34173     -929.84274     -733.88264      4340.1612    
     29310   211.1567      -929.61813     -1868.7069      4345.0847    
     29320   231.34384     -930.23653     -2641.0037      4348.3148    
     29330   251.78916     -930.88035     -2875.9298      4349.1122    
     29340   234.74302     -930.50168     -2467.1358      4347.2412    
     29350   212.81699     -929.98411     -1552.0105      4343.0574    
     29360   218.62566     -930.22569     -283.70355      4337.4028    
     29370   222.39952     -930.40485      1173.1269      4331.4575    
     29380   210.24938     -930.13226      2423.3721      4326.5626    
     29390   229.63358     -930.73581      2994.4793      4323.8578    
     29400   245.0644      -931.25004      2911.4493      4323.9004    
     29410   212.16545     -930.43342      2315.4513      4326.6526    
     29420   198.90836     -930.14895      1108.8097      4331.5746    
     29430   226.29472     -930.98922     -507.19903      4337.5716    
     29440   213.08114     -930.70112     -1849.0867      4343.1886    
     29450   192.96026     -930.20951     -2657.0915      4347.1628    
     29460   210.46623     -930.75934     -2932.2304      4348.7008    
     29470   221.01028     -931.12497     -2592.6124      4347.5197    
     29480   214.57082     -931.02593     -1682.159       4343.9128    
     29490   221.17031     -931.29199     -479.61028      4338.7006    
     29500   228.44356     -931.58301      713.20309      4332.9862    
     29510   211.05114     -931.19151      1705.8027      4327.8768    
     29520   172.56882     -930.19682      2427.6262      4324.3067    
     29530   160.12329     -929.8983       2682.0012      4322.951     
     29540   198.39697     -930.99926      2346.3055      4324.0602    
     29550   209.16014     -931.33696      1719.0427      4327.381     
     29560   200.86127     -931.14522      770.133        4332.3519    
     29570   221.1375      -931.74871     -555.80992      4338.0965    
     29580   213.49808     -931.58294     -1766.3364      4343.4143    
     29590   180.14348     -930.69803     -2583.5725      4347.1686    
     29600   197.6316      -931.22082     -3067.3496      4348.544     
     29610   206.50973     -931.51057     -2837.283       4347.0789    
     29620   181.80931     -930.86611     -1836.3627      4342.9608    
     29630   199.88234     -931.40361     -551.92731      4337.0654    
     29640   201.39808     -931.47662      920.41974      4330.5882    
     29650   170.87758     -930.64728      2326.3762      4324.8944    
     29660   198.21129     -931.41723      3129.7592      4321.2672    
     29670   207.80598     -931.69821      3418.4949      4320.5012    
     29680   176.02242     -930.83345      3077.222       4322.9035    
     29690   202.62028     -931.58888      1738.6794      4328.1749    
     29700   219.10112     -932.06063     -62.539159      4335.1587    
     29710   179.69049     -930.97552     -1729.4653      4342.2336    
     29720   178.98463     -930.9551      -3142.2633      4347.8162    
     29730   192.60622     -931.326       -3828.6902      4350.5649    
     29740   175.31118     -930.83686     -3486.0174      4349.7943    
     29750   192.65041     -931.30719     -2502.9762      4345.732     
     29760   210.36885     -931.77871     -1000.7604      4339.258     
     29770   193.66157     -931.28686      858.71627      4331.7562    
     29780   188.76857     -931.11439      2445.2159      4324.9179    
     29790   188.78171     -931.06804      3433.5671      4320.2236    
     29800   186.93418     -930.96525      3810.7505      4318.6387    
     29810   205.1419      -931.41694      3439.8392      4320.5632    
     29820   205.45754     -931.3685       2367.9364      4325.7317    
     29830   206.8592      -931.34886      666.71086      4333.2169    
     29840   224.89387     -931.78206     -1356.378       4341.489     
     29850   208.68694     -931.26326     -3049.1956      4348.695     
     29860   189.09441     -930.65952     -4086.7228      4353.2073    
     29870   200.23359     -930.91477     -4351.838       4353.9685    
     29880   196.67126     -930.76626     -3656.4007      4350.6543    
     29890   177.61123     -930.19078     -2033.7075      4343.8461    
     29900   188.68159     -930.43864      64.070445      4334.9905    
     29910   213.51715     -931.04492      2169.8984      4326.0108    
     29920   222.62545     -931.20919      3882.5998      4318.8643    
     29930   202.40264     -930.57745      4863.3971      4315.1731    
     29940   201.73072     -930.51158      4730.8966      4315.9006    
     29950   232.6984      -931.34001      3510.4598      4321.0354    
     29960   221.89654     -931.02371      1676.4711      4329.5948    
     29970   203.65425     -930.50621     -572.43673      4339.9596    
     29980   242.8514      -931.58033     -3042.5619      4350.0488    
     29990   238.23892     -931.45236     -4865.6479      4357.5546    
     30000   189.23974     -930.11188     -5581.5013      4360.6741    
     30010   205.44146     -930.59684     -5340.391       4358.5731    
     30020   222.95156     -931.13727     -3914.4495      4351.3796    
     30030   174.27383     -929.83396     -1307.7949      4340.3605    
     30040   176.35819     -929.90789      1660.1277      4327.8635    
     30050   215.03028     -930.97063      4408.6957      4316.6374    
     30060   213.56675     -930.91776      6373.6446      4309.2525    
     30070   215.52312     -930.98475      6800.4952      4307.5686    
     30080   229.9845      -931.4342       5587.5915      4312.1208    
     30090   209.22723     -930.92373      3261.3165      4322.0002    
     30100   192.3082      -930.5038       215.729        4335.2107    
     30110   200.48749     -930.74734     -2997.8543      4349.0037    
     30120   213.46283     -931.10336     -5636.0718      4360.363     
     30130   215.01588     -931.15071     -7092.8958      4366.6987    
     30140   209.4796      -931.02983     -7045.0337      4366.4712    
     30150   208.69745     -931.06687     -5475.6228      4359.5626    
     30160   211.88309     -931.21893     -2685.4108      4347.3275    
     30170   205.3028      -931.07722      816.76117      4332.3183    
     30180   202.40551     -931.00363      4231.5302      4317.7669    
     30190   205.82872     -931.08942      6736.1269      4306.8369    
     30200   194.32804     -930.77323      7807.2583      4301.8899    
     30210   177.8993      -930.34431      7222.4283      4304.0265    
     30220   179.15981     -930.41958      5087.7171      4312.8845    
     30230   191.03376     -930.7753       1897.2509      4326.6963    
     30240   213.21641     -931.38485     -1698.9155      4342.6435    
     30250   221.28884     -931.57739     -4941.1765      4357.4062    
     30260   206.07031     -931.12374     -7218.6135      4367.8557    
     30270   203.28369     -931.04095     -8142.8926      4371.6851    
     30280   209.34315     -931.24385     -7404.0738      4367.8661    
     30290   196.87476     -930.95735     -4973.2636      4356.9827    
     30300   197.94951     -931.03543     -1407.8107      4341.2411    
     30310   209.71295     -931.37372      2588.6674      4323.9537    
     30320   202.74917     -931.16008      6236.2393      4308.8329    
     30330   192.95946     -930.86568      8603.8868      4299.2365    
     30340   194.60226     -930.92064      9041.0858      4297.3716    
     30350   198.58199     -931.08122      7483.6181      4303.7634    
     30360   207.86512     -931.40698      4265.411       4317.1641    
     30370   201.20848     -931.26903      121.4947       4334.7851    
     30380   186.61972     -930.86371     -4088.691       4352.8617    
     30390   192.99719     -931.00735     -7523.4703      4367.413     
     30400   187.49042     -930.8297      -9327.5081      4375.0935    
     30410   169.73068     -930.34979     -9049.0095      4374.0595    
     30420   188.54075     -930.91673     -6819.8561      4364.4606    
     30430   209.86147     -931.54725     -3030.7367      4348.3664    
     30440   200.3232      -931.27938      1545.2821      4329.3373    
     30450   207.10447     -931.41643      5784.2684      4311.6218    
     30460   227.87919     -931.92946      8770.4581      4299.1118    
     30470   217.13453     -931.60966      9890.2826      4294.5289    
     30480   198.80531     -931.14321      8719.9368      4298.9122    
     30490   192.09879     -931.03253      5552.7546      4311.3064    
     30500   190.77595     -931.0534       1264.5981      4328.9572    
     30510   183.36664     -930.85385     -3127.7468      4347.9923    
     30520   179.91757     -930.71837     -6837.3238      4364.2935    
     30530   192.75524     -931.02895     -9149.2599      4374.2919    
     30540   193.0974      -931.02938     -9424.9059      4375.7308    
     30550   168.66684     -930.38194     -7559.3853      4368.3095    
     30560   188.49962     -930.96631     -4222.9905      4353.7728    
     30570   226.44686     -932.014       -49.660337      4335.3064    
     30580   201.49567     -931.26877      4366.4631      4316.8591    
     30590   190.55692     -930.88683      7856.3472      4302.4646    
     30600   226.30907     -931.81463      9522.0263      4295.2409    
     30610   209.7064      -931.34056      9232.1077      4296.6789    
     30620   181.31449     -930.58647      6903.9033      4306.5114    
     30630   205.39389     -931.28534      2940.513       4322.6673    
     30640   210.09999     -931.40097     -1511.4202      4341.5912    
     30650   186.34271     -930.68184     -5478.8637      4359.1639    
     30660   194.36123     -930.82693     -8334.191       4371.6163    
     30670   209.20191     -931.18261     -9443.3917      4376.2265    
     30680   204.58956     -931.04812     -8529.7486      4371.9554    
     30690   194.19195     -930.78572     -5774.8948      4359.728     
     30700   183.83087     -930.50744     -1712.0704      4342.2349    
     30710   184.42987     -930.47806      2758.432       4323.339     
     30720   200.97911     -930.8394       6661.8153      4307.1734    
     30730   216.71252     -931.16935      9202.8833      4297.2383    
     30740   232.60563     -931.54885      9704.6987      4295.7195    
     30750   236.82938     -931.66962      7933.3922      4302.9821    
     30760   213.21149     -931.05344      4366.4138      4317.4085    
     30770   187.76714     -930.36429     -129.09207      4335.7587    
     30780   184.68473     -930.24185     -4479.3184      4353.895     
     30790   190.65415     -930.33582     -7595.4642      4367.765     
     30800   198.88325     -930.50311     -8901.5628      4374.4382    
     30810   219.96143     -931.06816     -8370.804       4372.7123    
     30820   229.86065     -931.36335     -6160.8705      4363.1914    
     30830   222.21762     -931.18582     -2714.4524      4348.0885    
     30840   213.80848     -930.96749      1249.6778      4330.7298    
     30850   203.62906     -930.67002      4929.9412      4314.8193    
     30860   194.85823     -930.40165      7524.8257      4303.6651    
     30870   202.74133     -930.61934      8465.0131      4299.4971    
     30880   215.57011     -931.01889      7603.8221      4303.0401    
     30890   213.10986     -931.02955      5143.8545      4313.4259    
     30900   200.82569     -930.76798      1594.3896      4328.3694    
     30910   191.44698     -930.55656     -2221.2995      4344.6005    
     30920   191.73076     -930.58378     -5432.336       4358.5854    
     30930   204.74913     -930.96755     -7374.4267      4367.3448    
     30940   214.35627     -931.29554     -7694.8762      4369.1159    
     30950   206.60263     -931.18605     -6420.0376      4363.7025    
     30960   200.76721     -931.14719     -3884.5826      4352.4363    
     30970   206.10657     -931.40786     -573.25128      4337.8182    
     30980   201.04054     -931.35016      2871.3998      4322.9933    
     30990   191.39833     -931.13773      5612.4793      4311.0952    
     31000   186.06269     -931.03639      7099.2836      4304.5254    
     31010   192.64473     -931.28068      7064.8692      4304.4975    
     31020   189.38287     -931.26635      5584.2402      4310.8633    
     31030   180.68039     -931.09285      2968.8336      4322.1951    
     31040   191.64529     -931.43491     -277.60274      4336.0553    
     31050   213.11905     -932.03939     -3445.6595      4349.4391    
     31060   187.9361      -931.33408     -5679.785       4359.4398    
     31070   165.37001     -930.7016      -6717.5623      4364.004     
     31080   189.08858     -931.36735     -6464.3723      4362.244     
     31090   196.61117     -931.595       -4721.1845      4354.5511    
     31100   177.53083     -931.07702     -1852.6077      4342.6875    
     31110   191.6722      -931.4541       1252.6132      4329.3814    
     31120   205.08723     -931.78387      4020.3498      4317.5191    
     31130   180.20424     -931.0444       6001.0667      4309.5804    
     31140   179.97029     -931.00144      6586.0621      4307.2306    
     31150   209.10141     -931.7885       5668.6323      4310.8762    
     31160   205.11192     -931.66682      3644.6336      4319.6063    
     31170   184.58471     -931.08252      873.76222      4331.5105    
     31180   197.68852     -931.40884     -2148.8066      4344.0103    
     31190   202.54643     -931.48574     -4578.7282      4354.3337    
     31200   178.46368     -930.76244     -5866.3354      4360.2615    
     31210   183.68164     -930.86746     -5953.9241      4360.6463    
     31220   206.57219     -931.47306     -4771.1327      4355.5184    
     31230   197.69163     -931.20028     -2454.243       4346.1092    
     31240   191.96214     -931.00598      298.64445      4334.6428    
     31250   216.52967     -931.63544      2758.2149      4323.6807    
     31260   208.20997     -931.34914      4571.024       4315.4617    
     31270   180.17207     -930.5307       5393.8123      4311.5581    
     31280   178.02352     -930.44482      5084.4675      4312.6206    
     31290   186.72874     -930.66433      3810.4063      4318.2919    
     31300   200.64535     -931.02438      1812.2785      4327.3516    
     31310   219.11782     -931.50285     -515.73068      4337.9375    
     31320   213.09623     -931.29809     -2659.5772      4347.903     
     31330   222.62346     -931.53324     -4398.5232      4355.2513    
     31340   223.02009     -931.53546     -5177.9219      4358.4217    
     31350   190.73338     -930.65206     -4724.2059      4356.7636    
     31360   191.74409     -930.70043     -3455.8027      4350.7519    
     31370   215.92334     -931.38999     -1591.9401      4341.6511    
     31380   196.68392     -930.86413      813.70545      4331.2775    
     31390   187.51003     -930.60194      3050.6609      4321.8398    
     31400   205.9874      -931.10081      4522.2322      4315.3394    
     31410   192.92357     -930.73074      5121.1767      4313.0694    
     31420   186.988       -930.57001      4625.2993      4315.4904    
     31430   212.7226      -931.29526      3075.5556      4322.0862    
     31440   201.92632     -931.00411      979.46201      4331.4247    
     31450   187.25556     -930.59328     -1364.0968      4341.5523    
     31460   209.01274     -931.18073     -3526.8485      4350.2956    
     31470   197.45663     -930.84186     -4701.8239      4355.6979    
     31480   198.51146     -930.86454     -4818.4244      4356.6835    
     31490   238.06274     -931.97377     -4018.8132      4353.1845    
     31500   232.59674     -931.8555      -2255.9324      4346.0344    
     31510   205.2154      -931.13589     -98.771098      4336.9064    
     31520   208.4523      -931.2604       1816.6195      4327.802     
     31530   193.28975     -930.86784      3383.8383      4320.4986    
     31540   171.59297     -930.28571      4280.9125      4316.3896    
     31550   186.81882     -930.72827      4188.1278      4316.2271    
     31560   190.81726     -930.86027      3336.6381      4319.9009    
     31570   184.28143     -930.69552      1887.2743      4326.6015    
     31580   198.61706     -931.09946     -11.613055      4334.9705    
     31590   201.14121     -931.16253     -1853.7582      4343.2663    
     31600   204.41539     -931.24172     -3298.5143      4349.7824    
     31610   213.50226     -931.489       -4096.4608      4353.184     
     31620   200.78423     -931.14414     -3945.4484      4352.7687    
     31630   203.74465     -931.24596     -2979.4356      4348.7045    
     31640   210.74596     -931.46527     -1448.0087      4341.9277    
     31650   195.18301     -931.05579      398.94393      4333.8972    
     31660   199.27425     -931.18589      2098.8812      4326.3213    
     31670   214.34458     -931.62554      3281.8245      4320.7462    
     31680   187.08133     -930.90166      3844.3537      4318.2382    
     31690   171.62988     -930.51085      3590.7553      4319.269     
     31700   203.72096     -931.44797      2513.8748      4323.5734    
     31710   204.55755     -931.52739      1070.2019      4330.1725    
     31720   179.19924     -930.87822     -494.26107      4337.7298    
     31730   195.88526     -931.39251     -2182.6308      4344.7688    
     31740   209.66107     -931.83654     -3495.5092      4349.7416    
     31750   180.49465     -931.09814     -3924.7722      4351.4594    
     31760   164.59947     -930.72426     -3545.0844      4349.5265    
     31770   184.01454     -931.32797     -2475.7946      4344.3225    
     31780   185.44785     -931.42638     -702.52871      4336.8943    
     31790   169.94362     -931.03332      1382.2616      4328.9028    
     31800   199.13563     -931.86711      3032.231       4322.2394    
     31810   218.51582     -932.4339       3952.8094      4318.404     
     31820   193.61936     -931.78457      4003.2608      4318.214     
     31830   183.26824     -931.54267      3083.4718      4321.682     
     31840   194.7097      -931.90331      1489.2338      4327.9609    
     31850   181.86369     -931.57769     -283.37446      4335.5988    
     31860   175.91875     -931.42699     -2025.7769      4342.9426    
     31870   179.78858     -931.53493     -3363.0554      4348.3804    
     31880   169.25796     -931.23497     -3911.9812      4350.6837    
     31890   166.79323     -931.15367     -3612.6832      4349.3495    
     31900   175.59082     -931.37421     -2529.6595      4344.68      
     31910   179.23943     -931.43285     -870.36705      4337.7118    
     31920   194.12818     -931.78142      957.11796      4329.9931    
     31930   191.56304     -931.62609      2694.9602      4323.2254    
     31940   181.73885     -931.26508      3837.5764      4318.9773    
     31950   199.66291     -931.67451      3921.6185      4318.2492    
     31960   196.76485     -931.50876      3176.8267      4321.12      
     31970   175.94018     -930.85761      1909.3718      4326.9109    
     31980   204.97039     -931.58877      170.45611      4334.4338    
     31990   220.41271     -931.93466     -1550.2708      4342.0993    
     32000   195.88634     -931.186       -2863.6845      4348.3171    
     32010   203.4591      -931.3448      -3753.3234      4351.8418    
     32020   212.13583     -931.54817     -3918.742       4351.8632    
     32030   181.45117     -930.67508     -3141.7901      4348.2623    
     32040   173.55046     -930.43818     -1727.1225      4341.7715    
     32050   182.11564     -930.64481      93.940679      4333.7344    
     32060   184.37719     -930.66041      1993.2683      4325.8509    
     32070   210.03697     -931.31843      3456.5268      4319.8497    
     32080   217.21245     -931.47087      4274.1352      4317.0612    
     32090   192.82738     -930.76766      4210.7764      4318.2056    
     32100   200.78534     -930.97529      3023.2272      4323.1858    
     32110   219.27234     -931.47506      1144.4182      4330.9277    
     32120   214.72535     -931.33469     -880.60215      4339.7182    
     32130   213.65189     -931.29195     -2791.8225      4347.6674    
     32140   206.43822     -931.08361     -4117.7414      4353.0049    
     32150   191.39653     -930.66721     -4479.7494      4354.5065    
     32160   193.58326     -930.73774     -3879.605       4351.8406    
     32170   196.39335     -930.82682     -2431.5073      4345.595     
     32180   203.583       -931.03103     -454.77944      4337.1448    
     32190   215.72198     -931.36558      1591.3571      4328.3344    
     32200   195.22111     -930.79013      3372.5296      4321.0576    
     32210   188.84671     -930.60663      4382.9499      4316.9156    
     32220   220.1824      -931.47973      4328.3815      4316.7964    
     32230   210.26282     -931.2235       3452.9669      4320.6534    
     32240   187.45245     -930.6154       1840.4105      4327.6686    
     32250   206.80064     -931.17103     -318.35756      4336.3462    
     32260   202.20528     -931.05291     -2287.1389      4344.721     
     32270   181.06654     -930.46969     -3624.603       4350.967     
     32280   205.73087     -931.16049     -4291.3634      4353.8167    
     32290   225.06786     -931.72009     -4058.7053      4352.6674    
     32300   195.72803     -930.94614     -2824.7843      4347.7747    
     32310   192.52453     -930.89991     -1100.8935      4340.2902    
     32320   207.82592     -931.36522      739.16674      4331.8343    
     32330   192.71251     -930.98346      2500.2682      4324.1299    
     32340   185.24911     -930.81212      3747.7553      4318.7749    
     32350   204.37408     -931.38878      4179.9151      4316.8836    
     32360   208.83065     -931.5799       3766.635       4318.8334    
     32370   186.9218      -931.05038      2584.6776      4324.2341    
     32380   182.07764     -930.9881       747.11248      4331.9853    
     32390   200.81539     -931.57221     -1278.5956      4340.4031    
     32400   203.62946     -931.71357     -2926.2576      4347.6251    
     32410   185.3219      -931.2663      -3928.2789      4352.1132    
     32420   187.98111     -931.40215     -4246.2028      4352.9226    
     32430   194.06882     -931.6399      -3686.6735      4349.7863    
     32440   176.27594     -931.21105     -2212.033       4343.2668    
     32450   158.20684     -930.7509      -184.51752      4334.7582    
     32460   170.73746     -931.11277      1853.7609      4326.1414    
     32470   189.30993     -931.6227       3544.4807      4319.2946    
     32480   197.02952     -931.82713      4572.8531      4315.7484    
     32490   204.43301     -932.03211      4550.4717      4316.4006    
     32500   212.83875     -932.27802      3312.1198      4321.1958    
     32510   199.30932     -931.91949      1275.8507      4329.0078    
     32520   170.32014     -931.11882     -933.48071      4337.9812    
     32530   166.24733     -930.98796     -2884.3903      4346.0689    
     32540   177.75934     -931.2711      -4136.2419      4351.4611    
     32550   174.61847     -931.13814     -4351.5217      4353.0048    
     32560   180.76073     -931.25758     -3645.5403      4350.5023    
     32570   208.17406     -931.95233     -2300.1637      4344.6272    
     32580   202.40645     -931.70991     -425.50078      4336.6767    
     32590   182.29878     -931.06301      1547.1787      4328.4006    
     32600   192.52011     -931.24664      3054.6063      4321.5989    
     32610   195.05923     -931.20893      3965.8573      4317.6521    
     32620   185.63819     -930.85215      4136.5872      4317.3709    
     32630   205.29808     -931.31689      3352.801       4320.8721    
     32640   213.03674     -931.46097      1823.2089      4327.4334    
     32650   194.36975     -930.88667     -96.963202      4335.6504    
     32660   192.85069     -930.7935      -2031.4654      4343.7468    
     32670   201.33135     -930.97872     -3461.8446      4349.9385    
     32680   197.11837     -930.82155     -4041.2813      4352.903     
     32690   206.17487     -931.04871     -3786.6475      4352.099     
     32700   211.68314     -931.19005     -2725.6641      4347.7926    
     32710   212.74963     -931.21639     -1152.5723      4340.9926    
     32720   216.34458     -931.31496      582.37472      4333.179     
     32730   214.5798      -931.26655      2226.7196      4325.9704    
     32740   199.01641     -930.83753      3436.8432      4320.8684    
     32750   193.45535     -930.69039      3795.7424      4318.9418    
     32760   196.30487     -930.78133      3331.5389      4320.5038    
     32770   195.02393     -930.75948      2290.5864      4325.1257    
     32780   192.35722     -930.6945       813.35258      4331.8388    
     32790   196.51612     -930.80899     -910.22028      4339.27      
     32800   207.28108     -931.09866     -2486.1286      4345.8289    
     32810   212.18696     -931.22906     -3492.6587      4350.0608    
     32820   189.43206     -930.59966     -3617.3388      4351.048     
     32830   195.14278     -930.76534     -3016.2844      4348.6738    
     32840   227.16515     -931.66587     -1830.7411      4343.5206    
     32850   217.23418     -931.40901     -122.16986      4336.7325    
     32860   204.41421     -931.07429      1546.6868      4329.8842    
     32870   227.39909     -931.74073      2651.8841      4324.493     
     32880   215.61566     -931.46032      3242.2421      4321.5826    
     32890   176.83436     -930.43584      3233.5424      4321.6751    
     32900   186.29744     -930.74904      2374.8748      4324.7191    
     32910   197.56305     -931.11072      1039.1424      4329.9354    
     32920   182.41538     -930.73081     -349.14389      4336.1043    
     32930   187.93537     -930.9138      -1719.0514      4341.9223    
     32940   200.94409     -931.30137     -2798.9343      4346.1204    
     32950   184.91974     -930.88354     -3142.8995      4347.7223    
     32960   177.75452     -930.71025     -2726.1893      4346.415     
     32970   194.82466     -931.20572     -1710.5694      4342.5984    
     32980   215.793       -931.80813     -319.54233      4337.2338    
     32990   219.95813     -931.94995      1081.5877      4331.6144    
     33000   210.80413     -931.73293      2108.6248      4327.0228    
     33010   199.12991     -931.45566      2581.6834      4324.3951    
     33020   188.99945     -931.22812      2472.0997      4324.1537    
     33030   177.02753     -930.94855      1893.8991      4326.1917    
     33040   183.58952     -931.17902      969.6819       4329.9684    
     33050   195.0286      -931.54263     -96.4493        4334.6305    
     33060   188.19198     -931.39656     -1084.9943      4339.1931    
     33070   179.16815     -931.18443     -1836.6882      4342.739     
     33080   188.22349     -931.4712      -2287.9691      4344.5662    
     33090   197.14042     -931.7576      -2321.1815      4344.2655    
     33100   180.3881      -931.33353     -1783.3248      4341.8311    
     33110   161.57395     -930.84214     -810.43101      4337.7736    
     33120   178.78362     -931.33758      243.39372      4332.9891    
     33130   187.77215     -931.59291      1327.4481      4328.4707    
     33140   171.85676     -931.14566      2265.1359      4325.2173    
     33150   197.33243     -931.83958      2548.2125      4324.05      
     33160   229.73047     -932.72392      2218.089       4325.2253    
     33170   194.79716     -931.7471       1614.1044      4328.4577    
     33180   175.34285     -931.20005      542.26826      4333.1563    
     33190   199.37299     -931.84667     -874.45601      4338.3213    
     33200   182.05184     -931.33016     -1955.6683      4342.6792    
     33210   166.4738      -930.85397     -2541.2736      4345.2213    
     33220   187.25814     -931.37142     -2642.5957      4345.3963    
     33230   181.97338     -931.14721     -2039.9155      4343.1418    
     33240   179.61108     -930.99572     -984.95221      4339.0197    
     33250   216.33129     -931.91053      134.56334      4334.0029    
     33260   211.56726     -931.66633      1312.2222      4329.1538    
     33270   181.39859     -930.73747      2232.4442      4325.5466    
     33280   190.38979     -930.90653      2536.305       4323.9988    
     33290   188.64352     -930.77939      2382.277       4324.7996    
     33300   187.17322     -930.66893      1724.7604      4327.7903    
     33310   215.98217     -931.40097      605.64888      4332.3526    
     33320   220.2302      -931.45685     -499.01739      4337.4772    
     33330   200.15177     -930.85303     -1422.4873      4342.1381    
     33340   209.29622     -931.07005     -2234.5811      4345.4539    
     33350   216.17492     -931.23185     -2550.4182      4346.6951    
     33360   209.26451     -931.02395     -2221.6475      4345.5828    
     33370   212.40632     -931.10539     -1500.9615      4342.4161    
     33380   214.35666     -931.16041     -518.84872      4337.8781    
     33390   202.3783      -930.83204      632.19809      4332.8969    
     33400   196.26742     -930.66562      1615.6996      4328.5265    
     33410   196.8125      -930.68222      2173.7116      4325.6615    
     33420   195.58643     -930.64958      2283.4193      4324.8128    
     33430   194.90432     -930.63303      1968.0274      4326.0748    
     33440   188.84756     -930.46464      1307.4341      4329.1529    
     33450   199.94399     -930.76764      408.29113      4333.4334    
     33460   218.39108     -931.27216     -530.82788      4338.088     
     33470   217.81792     -931.25431     -1308.2443      4342.2502    
     33480   218.41277     -931.27972     -1914.7583      4345.1866    
     33490   230.46037     -931.64025     -2289.7893      4346.3297    
     33500   211.47799     -931.15912     -2172.1711      4345.3539    
     33510   182.84722     -930.41398     -1578.6217      4342.3773    
     33520   196.5003      -930.83987     -717.23721      4337.9517    
     33530   213.78548     -931.36974      399.98018      4332.8986    
     33540   201.53066     -931.08388      1594.7976      4328.2578    
     33550   192.49347     -930.88747      2379.2115      4325.103     
     33560   196.69356     -931.06123      2515.0943      4324.1389    
     33570   195.99063     -931.10312      2131.861       4325.495     
     33580   183.18066     -930.80721      1374.3564      4328.819     
     33590   175.30957     -930.63627      339.37348      4333.407     
     33600   199.96645     -931.35972     -822.27065      4338.2978    
     33610   217.48907     -931.8885      -1734.9289      4342.4296    
     33620   197.80999     -931.39062     -2189.4148      4344.9596    
     33630   191.79372     -931.27275     -2329.6132      4345.4452    
     33640   199.85735     -931.54944     -2079.6907      4343.7657    
     33650   181.67105     -931.09414     -1232.8458      4340.187     
     33660   185.19515     -931.23161     -104.43384      4335.4889    
     33670   212.00861     -932.01309      956.156        4330.7107    
     33680   198.23654     -931.67071      1842.2824      4326.8408    
     33690   170.5417      -930.93575      2338.5367      4324.6851    
     33700   182.75957     -931.3032       2208.8155      4324.6771    
     33710   182.20906     -931.31065      1667.472       4326.7093    
     33720   165.59162     -930.8615       903.87685      4330.2877    
     33730   184.99022     -931.39869     -51.713839      4334.6965    
     33740   212.83454     -932.15847     -974.59019      4339.0571    
     33750   204.69899     -931.91763     -1631.5081      4342.5208    
     33760   194.08447     -931.61022     -2062.2675      4344.4618    
     33770   199.94275     -931.7589      -2218.3516      4344.4782    
     33780   185.81948     -931.34848     -1872.2468      4342.4477    
     33790   158.96678     -930.57362     -1055.0422      4338.7023    
     33800   167.32047     -930.75173     -46.107157      4333.9948    
     33810   191.10697     -931.31737      1078.5246      4329.2743    
     33820   191.50599     -931.20247      2190.2294      4325.5864    
     33830   201.63338     -931.34957      2799.6898      4323.9246    
     33840   223.23777     -931.81473      2612.2033      4324.8266    
     33850   215.46056     -931.48567      1817.7507      4328.1322    
     33860   207.19678     -931.17141      603.89533      4333.1106    
     33870   199.73791     -930.89347     -695.40028      4338.6519    
     33880   190.61727     -930.57647     -1847.8513      4343.5504    
     33890   205.79727     -930.93817     -2694.7936      4346.7267    
     33900   218.78217     -931.24666     -2863.9643      4347.411     
     33910   198.88906     -930.65798     -2239.9234      4345.4588    
     33920   196.99147     -930.57761     -1275.3789      4341.4281    
     33930   212.40697     -930.97701     -184.30269      4336.222     
     33940   199.7794      -930.59762      1053.6576      4330.879     
     33950   198.26699     -930.5279       2091.0401      4326.5302    
     33960   217.22223     -931.02823      2655.0734      4324.1183    
     33970   215.55059     -930.96541      2737.4257      4324.1659    
     33980   218.91171     -931.05725      2157.8526      4326.7283    
     33990   218.5309      -931.05737      1027.7685      4331.2724    
     34000   197.98119     -930.50119     -267.7668       4336.7743    
     34010   203.71827     -930.67345     -1538.066       4342.027     
     34020   209.31104     -930.84271     -2412.8424      4345.8624    
     34030   199.38067     -930.58635     -2677.1685      4347.4689    
     34040   211.33729     -930.94494     -2437.1172      4346.5868    
     34050   229.08734     -931.4793      -1729.7147      4343.4464    
     34060   214.65434     -931.13423     -620.88571      4338.7223    
     34070   211.7802      -931.11782      499.16995      4333.4319    
     34080   207.67844     -931.07326      1493.3364      4328.6208    
     34090   181.4272      -930.4091       2292.4806      4325.2131    
     34100   179.17911     -930.40006      2621.3043      4323.9263    
     34110   206.78147     -931.22078      2346.3528      4325.0509    
     34120   209.86498     -931.36722      1616.7565      4328.3433    
     34130   197.7003      -931.0905       519.64367      4333.1277    
     34140   194.31845     -931.05012     -739.18211      4338.3923    
     34150   195.06922     -931.11633     -1805.0783      4342.9806    
     34160   197.90981     -931.23628     -2463.1235      4345.9011    
     34170   199.82693     -931.33107     -2653.5917      4346.5336    
     34180   202.30896     -931.44358     -2339.9038      4344.7027    
     34190   202.76966     -931.5029      -1484.8197      4340.7142    
     34200   174.84718     -930.76503     -135.55949      4335.3815    
     34210   169.42846     -930.63145      1251.5957      4329.9418    
     34220   217.04699     -931.96091      2237.3164      4325.659     
     34230   219.76225     -932.05012      2845.5689      4323.4574    
     34240   187.1615      -931.16694      2850.4241      4323.8809    
     34250   203.34378     -931.64082      1974.2838      4326.9058    
     34260   203.93568     -931.68197      651.32032      4331.7533    
     34270   165.16521     -930.61974     -674.494        4337.2219    
     34280   174.87148     -930.88807     -1896.8071      4342.0675    
     34290   197.36886     -931.49918     -2630.082       4345.1671    
     34300   180.7636      -931.02112     -2648.088       4345.8438    
     34310   174.56514     -930.82921     -2140.676       4344.0636    
     34320   191.70894     -931.27501     -1266.0206      4340.2977    
     34330   197.02088     -931.38025     -92.52289       4335.3753    
     34340   205.58691     -931.56919      1106.662       4330.3817    
     34350   208.1506      -931.58842      2092.9305      4326.4244    
     34360   200.57013     -931.32946      2626.9357      4324.4032    
     34370   202.23308     -931.33136      2553.7019      4324.8011    
     34380   205.13799     -931.3685       1915.0788      4327.5524    
     34390   208.93867     -931.42967      834.04131      4332.0733    
     34400   212.85348     -931.49107     -489.44165      4337.3673    
     34410   191.00299     -930.83376     -1642.0087      4342.2257    
     34420   186.60796     -930.65529     -2453.0263      4345.5682    
     34430   199.5883      -930.94365     -2749.1819      4346.6385    
     34440   195.36188     -930.7382      -2406.1845      4345.1653    
     34450   189.01174     -930.45888     -1519.5229      4341.469     
     34460   203.50511     -930.7308      -329.56536      4336.3714    
     34470   202.76023     -930.55488      1027.4247      4330.9912    
     34480   206.46103     -930.50351      2149.3888      4326.5682    
     34490   223.8775      -930.84698      2789.6464      4324.1311    
     34500   231.55057     -930.95513      2867.9512      4324.2696    
     34510   233.49221     -930.94964      2345.1918      4327.0541    
     34520   231.57806     -930.87291      1309.6015      4332.0088    
     34530   228.92908     -930.79726     -132.00275      4338.1768    
     34540   233.5473      -930.93644     -1708.559       4344.2248    
     34550   224.9798      -930.72228     -2918.3207      4348.7015    
     34560   201.71445     -930.10759     -3423.801       4350.4816    
     34570   200.21002     -930.10088     -3195.074       4349.081     
     34580   206.17408     -930.30373     -2198.9036      4344.7235    
     34590   210.39819     -930.45825     -624.03261      4338.3447    
     34600   213.72209     -930.5856       1105.6496      4331.4048    
     34610   215.1369      -930.66148      2509.9006      4325.4906    
     34620   210.73117     -930.58121      3347.7335      4321.8955    
     34630   219.55202     -930.88137      3397.9106      4321.3759    
     34640   216.09838     -930.85651      2753.7815      4323.9875    
     34650   204.7493      -930.61687      1594.4373      4329.1492    
     34660   217.78928     -931.05447      61.276267      4335.7934    
     34670   222.87233     -931.27558     -1498.7554      4342.5118    
     34680   200.65905     -930.73536     -2751.0855      4347.8567    
     34690   196.39195     -930.68592     -3522.0509      4350.6456    
     34700   206.04648     -931.02496     -3511.5173      4350.1659    
     34710   201.93413     -930.98459     -2573.2256      4346.4407    
     34720   195.79825     -930.87989     -1016.0204      4340.3408    
     34730   215.77843     -931.49235      627.33234      4333.2999    
     34740   228.41743     -931.90433      2105.5602      4326.8507    
     34750   204.73249     -931.31122      3135.7483      4322.3532    
     34760   181.5979      -930.72546      3328.4808      4320.7301    
     34770   184.83448     -930.86491      2716.1326      4322.1599    
     34780   172.78103     -930.56858      1750.1119      4326.1138    
     34790   166.75939     -930.42147      583.28876      4331.7053    
     34800   199.73738     -931.34134     -726.58111      4337.8486    
     34810   220.7266      -931.92376     -1867.8114      4343.3364    
     34820   192.8575      -931.15343     -2561.1213      4347.1117    
     34830   196.42398     -931.25875     -2913.7985      4348.4972    
     34840   217.26815     -931.84976     -2741.5933      4347.1716    
     34850   194.98036     -931.24976     -1861.7343      4343.3167    
     34860   186.0316      -931.01702     -602.6583       4337.7393    
     34870   206.88761     -931.60436      770.75934      4331.6112    
     34880   198.77959     -931.38343      2092.6073      4326.2136    
     34890   179.37524     -930.8453       2973.1197      4322.7498    
     34900   198.11253     -931.36492      3091.5983      4322.0117    
     34910   209.44832     -931.68119      2532.7493      4324.1206    
     34920   199.0625      -931.39937      1417.1147      4328.569     
     34930   182.45298     -930.94113      2.9989144      4334.3404    
     34940   171.93729     -930.63835     -1370.197       4340.1372    
     34950   182.60896     -930.90797     -2421.9145      4344.6829    
     34960   189.66984     -931.06451     -2846.7582      4347.0017    
     34970   183.53369     -930.84701     -2598.9632      4346.6891    
     34980   208.0739      -931.47201     -1942.895       4343.9527    
     34990   229.33828     -931.99448     -873.7378       4339.4175    
     35000   206.90104     -931.30633      520.80507      4334.0923    
     35010   204.11796     -931.16755      1654.1058      4329.2393    
     35020   217.1703      -931.46461      2294.828       4325.9026    
     35030   200.06519     -930.92808      2533.1699      4324.6914    
     35040   195.51264     -930.74642      2216.6748      4325.8145    
     35050   203.64475     -930.91275      1407.5765      4328.9857    
     35060   187.40047     -930.39723      397.4642       4333.4804    
     35070   194.54375     -930.52486     -738.5252       4338.3566    
     35080   219.29771     -931.12827     -1710.594       4342.5688    
     35090   219.2586      -931.04598     -2222.2224      4345.2194    
     35100   212.40082     -930.79115     -2281.8602      4345.8154    
     35110   213.01702     -930.75743     -1922.2604      4344.2915    
     35120   206.54024     -930.53611     -1139.2763      4340.9881    
     35130   207.89375     -930.53774     -143.84983      4336.626     
     35140   217.59046     -930.77382      889.37899      4332.1312    
     35150   222.77667     -930.89245      1797.6911      4328.4628    
     35160   220.57789     -930.82031      2321.8797      4326.452     
     35170   210.9714      -930.55705      2268.0501      4326.5757    
     35180   205.95774     -930.43025      1685.1545      4328.7943    
     35190   214.6979      -930.6909       725.92582      4332.5815    
     35200   217.09213     -930.78118     -319.12846      4337.0673    
     35210   218.52246     -930.85298     -1212.7007      4341.2897    
     35220   219.68376     -930.92929     -1882.5165      4344.4063    
     35230   209.84355     -930.71167     -2225.852       4345.7846    
     35240   207.79683     -930.71933     -2121.0598      4345.1016    
     35250   211.91703     -930.90824     -1540.6593      4342.4522    
     35260   201.60459     -930.70051     -593.55286      4338.374     
     35270   196.10052     -930.62073      459.60638      4333.738     
     35280   207.55366     -931.00828      1422.0626      4329.52      
     35290   213.92602     -931.25703      2132.5545      4326.6124    
     35300   208.3921      -931.17666      2374.4806      4325.6665    
     35310   206.08302     -931.1825       2005.2215      4326.9041    
     35320   205.83792     -931.23877      1138.3879      4329.9986    
     35330   187.34484     -930.77298      135.71122      4334.1773    
     35340   165.11352     -930.17787     -763.37024      4338.5228    
     35350   194.79389     -931.00629     -1582.6566      4342.1815    
     35360   230.53818     -932.00225     -2135.8145      4344.3874    
     35370   201.47464     -931.20764     -2122.7566      4344.636     
     35380   189.43642     -930.88687     -1733.286       4342.9093    
     35390   211.81827     -931.52045     -1008.7943      4339.5649    
     35400   200.76959     -931.22454      91.004845      4335.2905    
     35410   195.26569     -931.0792       1104.5129      4331.0804    
     35420   220.42974     -931.78617      1738.0656      4327.864     
     35430   210.47733     -931.52647      2109.2768      4326.2532    
     35440   179.15341     -930.67608      2042.4739      4326.5878    
     35450   177.38149     -930.6398       1385.9496      4328.8026    
     35460   182.58587     -930.78547      443.70271      4332.3213    
     35470   183.69188     -930.80589     -445.17366      4336.2941    
     35480   189.17276     -930.93747     -1102.1728      4339.9005    
     35490   208.56393     -931.44905     -1558.0662      4342.5111    
     35500   220.58953     -931.75859     -1775.8008      4343.6892    
     35510   212.50438     -931.52086     -1669.1982      4343.2248    
     35520   205.8707      -931.33278     -1267.1354      4341.2053    
     35530   207.77753     -931.38697     -666.71752      4337.9933    
     35540   188.68045     -930.8581       140.91626      4334.1526    
     35550   170.91165     -930.35837      1013.0452      4330.4296    
     35560   186.63864     -930.77617      1698.3669      4327.6248    
     35570   211.96092     -931.45126      2066.7231      4326.3777    
     35580   211.49065     -931.41279      2074.8681      4327.0449    
     35590   207.34284     -931.28031      1540.0345      4329.6348    
     35600   213.99992     -931.45229      494.70154      4333.6658    
     35610   206.09511     -931.22264     -650.90631      4338.2026    
     35620   184.0987      -930.60082     -1584.8341      4342.1918    
     35630   188.05521     -930.69387     -2221.6211      4344.7445    
     35640   207.88045     -931.22243     -2367.5867      4345.2566    
     35650   200.42435     -930.99426     -1886.4392      4343.5827    
     35660   194.05357     -930.79695     -1047.0203      4340.1375    
     35670   211.46264     -931.25554     -84.954727      4335.6839    
     35680   202.66509     -930.98267      975.02894      4331.1266    
     35690   187.62321     -930.5353       1838.5657      4327.4368    
     35700   194.60353     -930.69368      2351.3979      4325.4223    
     35710   208.2134      -931.03026      2442.1083      4325.5749    
     35720   222.89999     -931.39765      1986.7461      4327.9929    
     35730   235.42945     -931.7141       995.18228      4332.2767    
     35740   218.86071     -931.23605     -268.98429      4337.5391    
     35750   199.70449     -930.69389     -1533.2892      4342.6167    
     35760   199.42371     -930.67578     -2431.8672      4346.3353    
     35770   203.56929     -930.78164     -2736.8088      4347.839     
     35780   205.2243      -930.82321     -2517.0259      4346.8021    
     35790   206.63535     -930.86341     -1805.1011      4343.404     
     35800   205.65767     -930.83977     -625.6154       4338.2993    
     35810   202.80903     -930.76365      679.60115      4332.5622    
     35820   195.73599     -930.56777      1764.4475      4327.3925    
     35830   193.07965     -930.49228      2510.581       4323.8076    
     35840   199.2         -930.66054      2880.9209      4322.5214    
     35850   204.56258     -930.81171      2768.1805      4323.9001    
     35860   206.64507     -930.87718      2054.189       4327.8653    
     35870   222.73812     -931.33757      732.33863      4333.7838    
     35880   232.68136     -931.63822     -858.62518      4340.4667    
     35890   221.19777     -931.35967     -2263.4055      4346.4543    
     35900   217.81808     -931.32431     -3264.5765      4350.4096    
     35910   208.25489     -931.13672     -3613.9074      4351.3642    
     35920   187.54147     -930.64818     -3169.2587      4348.9535    
     35930   184.22079     -930.63779     -2025.146       4343.5537    
     35940   199.33381     -931.13427     -412.3839       4336.2042    
     35950   187.95111     -930.88354      1454.0515      4328.4027    
     35960   173.39787     -930.52373      3069.8071      4321.8644    
     35970   193.07556     -931.1052       3956.6104      4318.0794    
     35980   208.87202     -931.58622      4032.2587      4317.9055    
     35990   192.93049     -931.19386      3312.9249      4321.4666    
     36000   193.16261     -931.24747      1747.1305      4328.1432    
     36010   212.53798     -931.82705     -337.03097      4336.5421    
     36020   191.86515     -931.28476     -2258.4009      4344.778     
     36030   174.98742     -930.83404     -3681.1173      4351.0382    
     36040   199.17572     -931.52018     -4363.779       4353.9426    
     36050   212.00965     -931.902       -4057.8315      4352.8039    
     36060   187.85756     -931.26536     -2845.7988      4347.854     
     36070   185.24553     -931.2204      -1122.1263      4340.1729    
     36080   202.46446     -931.71338      857.97275      4331.3552    
     36090   191.58864     -931.414        2776.675       4323.2407    
     36100   184.25984     -931.20649      4042.8593      4317.5909    
     36110   187.07101     -931.28077      4381.5867      4315.5966    
     36120   182.42279     -931.14995      3851.5253      4317.6286    
     36130   184.54012     -931.20487      2572.6273      4323.2622    
     36140   177.38507     -930.98836      814.49157      4331.3843    
     36150   181.66709     -931.06689     -1225.5273      4340.3944    
     36160   202.38751     -931.57542     -3096.6187      4348.4057    
     36170   206.32298     -931.60389     -4235.2263      4353.6559    
     36180   196.53581     -931.25572     -4453.9839      4355.0178    
     36190   207.68171     -931.49332     -3844.9601      4352.2104    
     36200   197.60177     -931.13886     -2350.0144      4345.7723    
     36210   184.16106     -930.68556     -300.59581      4337.0649    
     36220   213.84358     -931.40818      1733.1727      4327.9651    
     36230   220.07446     -931.46448      3516.0358      4320.3742    
     36240   186.65817     -930.43926      4687.2748      4315.9532    
     36250   205.21393     -930.87911      4694.0533      4315.785     
     36260   224.95886     -931.36392      3697.22        4319.9543    
     36270   201.27034     -930.66412      2001.9834      4327.627     
     36280   207.64616     -930.80674     -287.65457      4337.276     
     36290   218.0398      -931.05573     -2598.5676      4346.8153    
     36300   192.07777     -930.2985      -4302.5984      4354.0867    
     36310   191.31751     -930.25115     -5167.1334      4357.4261    
     36320   203.97286     -930.58928     -4862.7506      4355.9673    
     36330   206.5357      -930.66034     -3337.0145      4349.9454    
     36340   223.1595      -931.12713     -1065.3414      4340.7319    
     36350   221.33281     -931.07957      1465.4376      4330.4262    
     36360   205.97029     -930.65209      3644.173       4321.3643    
     36370   212.81436     -930.84489      4923.8619      4315.5569    
     36380   214.88033     -930.92147      5217.494       4314.228     
     36390   213.93572     -930.93437      4453.9176      4317.7032    
     36400   231.48157     -931.4779       2592.4275      4325.3378    
     36410   222.59964     -931.29348      144.86566      4335.5005    
     36420   202.14671     -930.77551     -2350.555       4345.963     
     36430   197.22904     -930.67491     -4435.3065      4354.3819    
     36440   182.40667     -930.29345     -5526.8896      4358.7681    
     36450   183.71809     -930.3637      -5378.9969      4358.0272    
     36460   200.45795     -930.87044     -4013.3827      4352.2348    
     36470   194.804       -930.75096     -1613.6456      4342.6411    
     36480   203.54818     -931.01341      1150.2002      4331.4511    
     36490   231.1953      -931.7907       3546.9381      4321.2115    
     36500   219.52388     -931.48628      5155.3871      4314.1479    
     36510   190.30355     -930.70917      5623.0827      4311.7567    
     36520   187.99042     -930.68905      4834.0163      4314.5112    
     36530   201.68007     -931.11756      3087.3888      4321.7691    
     36540   202.7415      -931.18893      840.58073      4332.0049    
     36550   208.37477     -931.37365     -1667.7823      4343.1641    
     36560   218.3655      -931.67162     -3965.0514      4352.9119    
     36570   203.36675     -931.28163     -5383.8449      4359.0782    
     36580   178.21205     -930.61725     -5696.2693      4360.2623    
     36590   191.08807     -931.0186      -4971.6845      4356.0953    
     36600   190.24955     -931.04164     -3032.0053      4347.2484    
     36610   168.99906     -930.47714     -214.52233      4335.5218    
     36620   192.35359     -931.11991      2664.8482      4323.5089    
     36630   220.44448     -931.87714      5081.7331      4313.8784    
     36640   202.81302     -931.37526      6485.5233      4308.8546    
     36650   202.24104     -931.37314      6244.6944      4309.7185    
     36660   211.85032     -931.67597      4521.4486      4316.3223    
     36670   193.69081     -931.21023      1884.7565      4327.1834    
     36680   182.33207     -930.91205     -1175.9115      4339.9243    
     36690   181.27029     -930.87039     -3954.1934      4351.7261    
     36700   182.59487     -930.87883     -5837.8225      4359.9637    
     36710   197.95365     -931.2832      -6511.2144      4362.7997    
     36720   192.56831     -931.12778     -5668.1624      4359.5596    
     36730   182.53145     -930.84748     -3535.206       4350.9961    
     36740   214.15167     -931.70206     -812.00301      4339.0718    
     36750   222.57951     -931.87851      2146.6724      4326.3463    
     36760   192.81479     -930.97462      4836.3291      4315.5673    
     36770   214.56193     -931.49381      6323.2133      4309.1658    
     36780   223.34621     -931.65482      6386.6399      4308.5202    
     36790   173.79574     -930.21863      5149.6656      4313.7384    
     36800   181.295       -930.36783      2613.4779      4323.7218    
     36810   215.56749     -931.21323     -418.43542      4336.2199    
     36820   188.76006     -930.33709     -3012.2911      4348.4784    
     36830   190.22114     -930.25048     -5050.7765      4358.0202    
     36840   229.40075     -931.21225     -6169.2935      4362.8882    
     36850   226.89568     -931.05111     -5864.1435      4362.0139    
     36860   220.68301     -930.83502     -4375.8988      4355.6385    
     36870   225.38714     -930.94421     -2079.2038      4345.1473    
     36880   198.59609     -930.17807      777.24         4332.7156    
     36890   195.41552     -930.05307      3529.0932      4320.9885    
     36900   229.03114     -930.94295      5578.3107      4312.4924    
     36910   235.62666     -931.10693      6513.1708      4309.0985    
     36920   225.96403     -930.86377      5914.8391      4311.6472    
     36930   216.57882     -930.65856      3937.6342      4319.6296    
     36940   203.49409     -930.35103      1176.7631      4331.2987    
     36950   208.42751     -930.52548     -1868.483       4344.1319    
     36960   217.47397     -930.80174     -4516.1973      4355.3048    
     36970   210.34521     -930.63549     -6093.3588      4362.3253    
     36980   211.28289     -930.71693     -6393.931       4363.6639    
     36990   213.50336     -930.86378     -5368.5977      4359.0168    
     37000   197.07503     -930.5017      -3119.5914      4349.3625    
     37010   196.98216     -930.57514     -228.81833      4336.8116    
     37020   207.90055     -930.93067      2697.8976      4324.0657    
     37030   206.97159     -930.94241      5150.276       4313.8305    
     37040   210.81206     -931.09291      6496.6847      4308.3208    
     37050   208.78527     -931.10409      6389.2593      4308.7435    
     37060   199.16245     -930.92054      4874.5008      4315.0112    
     37070   209.90585     -931.30116      2244.3543      4325.767     
     37080   214.65769     -931.50023     -809.69604      4338.6369    
     37090   191.07042     -930.88511     -3523.7649      4350.815     
     37100   189.95667     -930.87367     -5530.7923      4359.736     
     37110   203.59397     -931.27727     -6452.4824      4363.4915    
     37120   192.27639     -931.00516     -5931.4873      4361.2211    
     37130   191.63832     -931.03802     -4167.757       4353.4168    
     37140   208.93306     -931.56233     -1557.9557      4341.758     
     37150   199.13259     -931.31377      1504.9078      4328.7199    
     37160   183.9738      -930.89035      4261.243       4317.1298    
     37170   195.75251     -931.20537      5985.7388      4309.4802    
     37180   199.63086     -931.31337      6483.1723      4307.3268    
     37190   188.14775     -931.01521      5616.7526      4311.0973    
     37200   177.98971     -930.75833      3463.6905      4319.9963    
     37210   182.23575     -930.88186      568.77264      4332.0785    
     37220   195.47369     -931.22425     -2280.4002      4344.7038    
     37230   206.42297     -931.48412     -4512.985       4355.22      
     37240   206.56323     -931.44779     -5802.3498      4361.5171    
     37250   213.7276      -931.62848     -5999.7094      4362.3716    
     37260   221.06145     -931.84162     -5008.2574      4357.6205    
     37270   200.96637     -931.30894     -2892.6929      4348.2447    
     37280   184.5038      -930.86621     -204.8806       4336.2511    
     37290   194.2462      -931.12662      2434.4594      4324.1511    
     37300   185.57456     -930.85634      4698.5468      4314.3896    
     37310   173.81642     -930.49541      6083.7384      4308.9998    
     37320   205.94508     -931.36146      6053.975       4309.1761    
     37330   208.24768     -931.4099       4776.8536      4314.88      
     37340   176.86671     -930.52639      2495.1942      4324.9385    
     37350   196.88305     -931.04597     -518.48884      4337.243     
     37360   216.02198     -931.50113     -3354.9485      4349.0357    
     37370   185.65241     -930.56756     -5168.966       4357.6973    
     37380   186.33692     -930.50005     -5862.381       4361.5049    
     37390   221.59083     -931.38456     -5400.4046      4359.8207    
     37400   230.12065     -931.52532     -3766.8067      4353.1329    
     37410   224.16143     -931.27171     -1373.5193      4343.0144    
     37420   224.84431     -931.20056      1199.5026      4331.7244    
     37430   221.961       -931.02881      3435.727       4321.6503    
     37440   205.26981     -930.4849       4932.5099      4314.8239    
     37450   194.62289     -930.12771      5401.5017      4312.5652    
     37460   206.71975     -930.41783      4758.4037      4315.2558    
     37470   219.09906     -930.72552      3141.1662      4322.2793    
     37480   206.17743     -930.33488      867.60396      4332.1412    
     37490   201.83911     -930.17583     -1660.433       4342.7367    
     37500   212.17225     -930.41458     -3801.843       4351.7311    
     37510   205.2932      -930.18002     -4894.5666      4357.1569    
     37520   217.21941     -930.48646     -4857.7955      4357.9995    
     37530   237.24443     -931.04054     -3862.2269      4354.3209    
     37540   237.32784     -931.06564     -2180.9643      4347.0971    
     37550   234.88243     -931.0384      -156.34668      4337.939     
     37560   227.66229     -930.88929      1853.8347      4328.7503    
     37570   205.03918     -930.31542      3464.1532      4321.378     
     37580   204.3899      -930.35444      4302.92        4317.2579    
     37590   216.72001     -930.76968      4324.8364      4317.1207    
     37600   205.10283     -930.53224      3583.4013      4320.9504    
     37610   205.22556     -930.61949      1995.1798      4328.0179    
     37620   217.48761     -931.03619     -102.93912      4336.8505    
     37630   213.78797     -930.99658     -2138.9777      4345.5192    
     37640   208.61098     -930.90251     -3757.5116      4352.1306    
     37650   206.43425     -930.88545     -4585.9729      4355.1976    
     37660   201.8734      -930.80246     -4344.4563      4353.992     
     37670   198.51562     -930.75071     -3121.6964      4348.7878    
     37680   203.62608     -930.92623     -1284.5373      4340.7682    
     37690   199.52468     -930.832        859.60213      4331.6854    
     37700   190.31692     -930.58015      2867.0709      4323.5272    
     37710   198.60552     -930.80636      4189.7846      4318.0988    
     37720   217.15471     -931.32559      4548.423       4316.5594    
     37730   218.96174     -931.39886      3965.6165      4319.1917    
     37740   211.35262     -931.2253       2546.9581      4325.4188    
     37750   209.55736     -931.21464      559.32192      4333.9123    
     37760   207.79223     -931.19785     -1579.9752      4342.8303    
     37770   209.81754     -931.28196     -3421.9427      4350.192     
     37780   203.05555     -931.12798     -4445.3569      4354.3137    
     37790   181.19853     -930.56014     -4403.8075      4354.2819    
     37800   187.05273     -930.76332     -3482.4435      4350.1739    
     37810   199.46088     -931.14659     -1813.6381      4342.9161    
     37820   183.01256     -930.71557      326.21464      4334.1161    
     37830   192.17311     -930.9783       2277.0724      4325.7497    
     37840   218.5134      -931.71453      3630.6686      4319.5903    
     37850   191.45021     -930.97601      4323.2621      4316.8496    
     37860   175.63404     -930.55425      4054.2359      4318.0855    
     37870   212.71371     -931.60442      2810.1065      4322.9908    
     37880   208.93509     -931.52101      1187.432       4330.424     
     37890   192.03098     -931.06856     -621.78611      4338.8602    
     37900   214.35404     -931.69915     -2465.8466      4346.6031    
     37910   211.96036     -931.6475      -3755.3965      4351.9742    
     37920   186.49897     -930.96443     -4188.1293      4353.8074    
     37930   188.98447     -931.06354     -3814.9386      4351.7372    
     37940   196.75205     -931.31221     -2658.1165      4346.1806    
     37950   190.64203     -931.17072     -875.72477      4338.2815    
     37960   184.56191     -931.01726      1132.4764      4329.7262    
     37970   174.28836     -930.72981      2912.068       4322.364     
     37980   189.50044     -931.13968      3991.0653      4317.7813    
     37990   207.81477     -931.63726      4229.6947      4316.9108    
     38000   193.06008     -931.22463      3671.849       4319.9172    
     38010   200.49871     -931.43185      2207.3105      4326.2163    
     38020   206.50177     -931.59199      275.60641      4334.4447    
     38030   182.31148     -930.90212     -1576.0015      4342.8234    
     38040   194.55923     -931.2119      -3227.4856      4349.6167    
     38050   215.98354     -931.77012     -4254.5261      4353.3233    
     38060   186.23169     -930.91572     -4179.8603      4353.0613    
     38070   176.39855     -930.61945     -3179.6525      4348.9523    
     38080   208.02655     -931.45973     -1576.7795      4341.9872    
     38090   210.01257     -931.45802      387.99366      4333.7157    
     38100   202.43188     -931.18306      2207.3914      4325.9591    
     38110   204.65844     -931.17556      3518.4119      4320.3652    
     38120   185.76805     -930.58326      4157.3647      4318.0902    
     38130   190.49567     -930.65181      3785.6103      4319.6292    
     38140   212.1481      -931.18359      2572.6783      4324.5887    
     38150   207.08347     -930.97002      1000.4362      4331.8375    
     38160   219.05499     -931.2297      -832.06445      4339.8853    
     38170   229.96993     -931.46021     -2556.8528      4347.0358    
     38180   195.68863     -930.45062     -3631.5446      4351.727     
     38190   188.58047     -930.21038     -4001.1457      4352.9831    
     38200   210.35207     -930.77652     -3522.7766      4350.5271    
     38210   201.60746     -930.49973     -2082.367       4344.8971    
     38220   208.94623     -930.67075     -239.89561      4337.4659    
     38230   232.50298     -931.28945      1524.6411      4329.9583    
     38240   218.73164     -930.88069      2976.3727      4324.0026    
     38250   210.5897      -930.64412      3648.3462      4320.8675    
     38260   214.95932     -930.77045      3448.9542      4321.108     
     38270   199.00877     -930.34305      2653.4104      4324.5024    
     38280   207.89319     -930.60895      1342.9094      4330.2658    
     38290   224.01877     -931.07832     -176.00311      4337.1713    
     38300   217.22336     -930.91705     -1585.2145      4343.8117    
     38310   225.76615     -931.19387     -2772.3437      4348.8751    
     38320   227.89102     -931.31505     -3420.4638      4351.2966    
     38330   204.39918     -930.74529     -3352.4413      4350.5252    
     38340   182.85004     -930.23087     -2650.8823      4346.6772    
     38350   185.70557     -930.38654     -1395.1647      4340.4682    
     38360   189.86362     -930.56688      365.84646      4333.1262    
     38370   194.9584      -930.76037      2121.5635      4326.276     
     38380   206.59477     -931.13175      3325.7601      4321.4911    
     38390   217.00895     -931.4788       3787.9326      4319.8269    
     38400   212.82395     -931.43408      3448.9285      4321.6464    
     38410   209.05554     -931.40615      2267.1288      4326.5724    
     38420   211.61494     -931.55089      529.02977      4333.4856    
     38430   193.7173      -931.11278     -1232.7022      4340.7836    
     38440   179.67021     -930.7571      -2663.9995      4346.8393    
     38450   202.84173     -931.42362     -3547.6178      4350.3406    
     38460   203.15638     -931.45617     -3597.4783      4350.5222    
     38470   180.13116     -930.83947     -2865.8894      4347.3898    
     38480   180.43406     -930.86095     -1566.6801      4341.6786    
     38490   196.3388      -931.30265      83.55646       4334.6439    
     38500   200.27874     -931.40186      1754.5446      4327.8289    
     38510   201.46913     -931.42273      3016.7219      4322.7455    
     38520   197.10734     -931.29249      3582.5634      4320.5051    
     38530   204.12501     -931.48623      3233.0365      4321.5566    
     38540   195.17442     -931.24183      2194.551       4325.5426    
     38550   169.68654     -930.53254      796.96848      4331.4848    
     38560   184.50061     -930.92764     -779.23369      4338.068     
     38570   208.39683     -931.5608      -2080.3171      4343.8481    
     38580   190.14403     -931.02184     -2728.4309      4347.649     
     38590   200.40295     -931.27897     -2941.9357      4348.866     
     38600   226.83884     -931.99003     -2680.342       4347.3421    
     38610   200.01143     -931.23328     -1725.3251      4343.3927    
     38620   183.26697     -930.7587      -479.92696      4337.9223    
     38630   202.07174     -931.26224      716.27719      4332.0955    
     38640   195.01286     -931.03935      1903.8345      4327.0418    
     38650   193.21083     -930.96053      2757.9624      4323.8214    
     38660   213.27512     -931.48959      2943.9296      4323.166     
     38670   207.32105     -931.30223      2468.8127      4325.2114    
     38680   199.7108      -931.07565      1366.1193      4329.4805    
     38690   196.17906     -930.95952     -28.055622      4334.9479    
     38700   180.71462     -930.50334     -1267.3445      4340.3357    
     38710   184.50015     -930.57142     -2188.2636      4344.4939    
     38720   197.64599     -930.88864     -2611.6944      4346.5866    
     38730   198.7261      -930.86623     -2419.7004      4346.2528    
     38740   214.54262     -931.25243     -1785.4188      4343.6911    
     38750   226.72925     -931.5385      -798.84439      4339.5249    
     38760   209.08013     -931.00373      446.46152      4334.699     
     38770   206.42569     -930.89011      1515.9603      4330.3506    
     38780   226.32308     -931.40473      2112.591       4327.4431    
     38790   219.15183     -931.17864      2314.8089      4326.5192    
     38800   202.34891     -930.69832      2049.1783      4327.7343    
     38810   213.64798     -931.00439      1217.5561      4330.8056    
     38820   213.18474     -930.98717      117.41717      4334.9654    
     38830   191.56796     -930.38468     -945.55989      4339.1993    
     38840   186.82362     -930.24669     -1784.2713      4342.5233    
     38850   194.78253     -930.45512     -2139.2759      4344.1797    
     38860   197.08635     -930.50203     -1942.7534      4343.8582    
     38870   207.93868     -930.78401     -1405.3286      4341.7459    
     38880   210.32538     -930.82891     -533.55687      4338.372     
     38890   210.37831     -930.80831      497.63864      4334.5561    
     38900   233.14336     -931.42131      1327.2092      4331.2376    
     38910   241.08295     -931.63903      1820.8318      4329.1758    
     38920   218.41237     -931.03278      1883.6707      4328.809     
     38930   205.11737     -930.70353      1447.4854      4330.1712    
     38940   208.39018     -930.84556      716.92386      4332.8573    
     38950   195.79643     -930.55295     -62.278861      4336.1953    
     38960   194.44995     -930.57234     -895.83803      4339.4476    
     38970   212.78855     -931.14529     -1570.4277      4341.849     
     38980   206.92807     -931.05755     -1709.0278      4342.8051    
     38990   191.85192     -930.71576     -1427.7221      4342.1857    
     39000   197.08397     -930.93506     -995.35526      4340.2459    
     39010   208.93993     -931.34089     -444.1807       4337.4024    
     39020   198.55944     -931.12843      245.16674      4334.1847    
     39030   191.0147      -930.98637      868.98724      4331.2229    
     39040   187.34255     -930.94215      1360.7237      4329.0937    
     39050   184.59062     -930.91271      1624.279       4328.2408    
     39060   193.36667     -931.19608      1538.8805      4328.8901    
     39070   209.518       -931.68288      1119.1825      4330.9545    
     39080   216.52461     -931.92134      433.38969      4334.0396    
     39090   199.91337     -931.50613     -391.39117      4337.5093    
     39100   188.27998     -931.22285     -1226.0272      4340.5965    
     39110   191.8983      -931.35607     -1821.3563      4342.5375    
     39120   191.05556     -931.36138     -1932.3951      4342.7969    
     39130   181.86078     -931.12906     -1515.9757      4341.2837    
     39140   186.39482     -931.27005     -791.86575      4338.3826    
     39150   195.00158     -931.51682      46.252928      4334.7693    
     39160   183.36448     -931.19426      909.70827      4331.2298    
     39170   177.58554     -931.0254       1563.2188      4328.5523    
     39180   197.78906     -931.56984      1779.3137      4327.3219    
     39190   203.25833     -931.70206      1645.8484      4327.7403    
     39200   180.44482     -931.04887      1289.633       4329.6875    
     39210   181.29123     -931.04656      601.41324      4332.8139    
     39220   204.43556     -931.65015     -315.3489       4336.4797    
     39230   197.11709     -931.39974     -1093.8821      4339.8547    
     39240   181.77089     -930.92464     -1609.1955      4342.2151    
     39250   194.68087     -931.22636     -1837.8986      4343.0774    
     39260   202.9011      -931.38747     -1581.3494      4342.2491    
     39270   199.51473     -931.2236      -900.96787      4339.9747    
     39280   210.35817     -931.45199     -122.01423      4336.8744    
     39290   219.31374     -931.6261       587.13566      4333.6726    
     39300   206.82099     -931.21227      1132.2563      4331.0284    
     39310   193.02322     -930.77071      1401.7372      4329.4394    
     39320   191.12303     -930.6604       1381.8535      4329.1523    
     39330   194.56319     -930.69517      1098.7857      4330.1463    
     39340   200.40295     -930.79434      637.73822      4332.1596    
     39350   200.10681     -930.72389      176.7152       4334.7744    
     39360   198.16523     -930.61124     -290.6615       4337.5563    
     39370   208.73065     -930.84954     -827.8111       4340.0589    
     39380   213.54282     -930.93524     -1241.699       4341.7931    
     39390   209.75724     -930.79483     -1362.164       4342.3838    
     39400   221.90171     -931.11001     -1231.0741      4341.7137    
     39410   226.34182     -931.22636     -793.74689      4339.9154    
     39420   213.85856     -930.88577     -143.18105      4337.3987    
     39430   223.12716     -931.15828      364.19391      4334.7454    
     39440   219.44815     -931.07988      779.26885      4332.4393    
     39450   190.09854     -930.28829      1184.5384      4330.8772    
     39460   192.59393     -930.37392      1285.6655      4330.4098    
     39470   207.98855     -930.81444      1044.6959      4331.1271    
     39480   201.14118     -930.63625      681.65479      4332.8236    
     39490   213.48611     -930.9931       164.01362      4335.1521    
     39500   217.55349     -931.12485     -367.64104      4337.64      
     39510   202.33254     -930.72463     -834.52012      4339.7932    
     39520   206.21962     -930.85593     -1251.8108      4341.1675    
     39530   208.45181     -930.94406     -1362.7238      4341.3905    
     39540   196.6926      -930.64395     -1019.6398      4340.3721    
     39550   210.02162     -931.04094     -505.6163       4338.4109    
     39560   222.28215     -931.41429      54.099012      4335.9844    
     39570   207.91619     -931.05583      632.8655       4333.6196    
     39580   200.04452     -930.87818      1023.026       4331.8429    
     39590   212.9078      -931.27984      1057.7521      4331.0038    
     39600   199.48817     -930.95518      925.25445      4331.1528    
     39610   176.36924     -930.35397      660.35592      4332.1666    
     39620   184.05652     -930.59641      271.73791      4333.7968    
     39630   209.05136     -931.31505     -78.299385      4335.6924    
     39640   210.02621     -931.36947     -298.50972      4337.5339    
     39650   208.85807     -931.36936     -560.72449      4339.0977    
     39660   220.56169     -931.73534     -870.33273      4340.1354    
     39670   207.69043     -931.42867     -1005.3864      4340.3741    
     39680   183.57089     -930.80726     -917.26338      4339.6886    
     39690   188.55589     -930.98698     -685.48664      4338.1533    
     39700   193.71049     -931.16601     -266.35521      4335.9923    
     39710   187.4157      -931.02137      266.36083      4333.5941    
     39720   186.38294     -931.01571      755.42267      4331.447     
     39730   188.5144      -931.09125      1116.4161      4330.0036    
     39740   189.87937     -931.13992      1295.6674      4329.5993    
     39750   195.6559      -931.30796      1189.849       4330.3942    
     39760   197.17067     -931.35499      808.74859      4332.2935    
     39770   209.40583     -931.70012      181.85513      4334.9426    
     39780   207.83719     -931.66539     -452.75881      4337.7753    
     39790   189.49727     -931.16658     -993.4424       4340.2014    
     39800   195.70404     -931.3479      -1469.4841      4341.7037    
     39810   202.06339     -931.53423     -1618.0594      4341.8523    
     39820   178.88933     -930.89936     -1248.5324      4340.5223    
     39830   187.5148      -931.14197     -664.40283      4338.0324    
     39840   207.3903      -931.69028      25.682224      4334.9262    
     39850   185.99534     -931.08808      798.88837      4331.8551    
     39860   180.27429     -930.91458      1305.0583      4329.5136    
     39870   196.81669     -931.34646      1492.663       4328.3742    
     39880   196.30581     -931.29317      1468.5086      4328.6248    
     39890   187.76184     -931.0087       1164.321       4330.2391    
     39900   192.42662     -931.07859      599.52298      4332.937     
     39910   199.9355      -931.21153     -88.473502      4336.2047    
     39920   213.66518     -931.50635     -849.5882       4339.3977    
     39930   207.22829     -931.23968     -1408.8778      4341.8211    
     39940   193.49015     -930.7784      -1631.5462      4342.9537    
     39950   210.70715     -931.17901     -1594.0737      4342.5709    
     39960   211.61391     -931.12856     -1117.7145      4340.7224    
     39970   191.48015     -930.50457     -283.92484      4337.8509    
     39980   211.51372     -930.99909      431.24158      4334.6999    
     39990   231.80799     -931.50202      977.82967      4331.9407    
     40000   206.62844     -930.75854      1446.4076      4330.0989    
     40010   199.96023     -930.54234      1493.2335      4329.5832    
     40020   207.45807     -930.72277      1140.1771      4330.4428    
     40030   191.82392     -930.26266      740.60707      4332.3827    
     40040   202.70933     -930.53899      244.14434      4335.0248    
     40050   230.77907     -931.29292     -355.95332      4337.9029    
     40060   212.61372     -930.77351     -827.04263      4340.4753    
     40070   205.04188     -930.55841     -1283.3414      4342.2817    
     40080   223.24336     -931.06642     -1609.0857      4342.8956    
     40090   206.56615     -930.6161      -1416.2412      4342.0399    
     40100   196.34862     -930.34928     -876.33269      4339.8768    
     40110   223.42915     -931.12351     -254.17218      4336.8892    
     40120   208.61887     -930.74275      597.49636      4333.6812    
     40130   195.99121     -930.42453      1355.1349      4331.0259    
     40140   234.00555     -931.5235       1642.7062      4329.6031    
     40150   232.12378     -931.54049      1631.0721      4329.7057    
     40160   202.84597     -930.81092      1241.553       4331.3205    
     40170   210.81153     -931.12183      400.56399      4334.0784    
     40180   202.44029     -930.98403     -403.08832      4337.2374    
     40190   175.3069      -930.30943     -994.40665      4340.0552    
     40200   195.2885      -930.93003     -1585.6514      4341.9471    
     40210   205.70286     -931.28474     -1833.508       4342.3808    
     40220   180.49107     -930.64075     -1498.1424      4341.1365    
     40230   181.3463      -930.70572     -827.49568      4338.5019    
     40240   199.84664     -931.24959      41.149877      4335.0985    
     40250   208.04441     -931.50323      932.91118      4331.7302    
     40260   204.59698     -931.43254      1598.8396      4329.2167    
     40270   204.67395     -931.46089      1865.7103      4328.1709    
     40280   203.25718     -931.4482       1701.7829      4328.8482    
     40290   206.27182     -931.56047      1054.272       4331.0953    
     40300   190.9609      -931.16008      217.9634       4334.3391    
     40310   188.96921     -931.12118     -615.23379      4337.8111    
     40320   204.46103     -931.56174     -1310.8185      4340.7362    
     40330   204.18151     -931.56475     -1678.0565      4342.4686    
     40340   184.86983     -931.03872     -1654.1107      4342.6594    
     40350   186.5687      -931.09119     -1428.986       4341.3061    
     40360   196.26341     -931.36078     -978.5643       4338.6181    
     40370   173.95576     -930.73516     -150.27974      4335.033     
     40380   163.17539     -930.41809      784.63515      4331.3056    
     40390   190.6456      -931.14852      1533.6776      4328.2905    
     40400   203.33903     -931.45933      2067.3623      4326.6944    
     40410   199.56069     -931.31688      2167.3104      4327.0058    
     40420   218.01785     -931.79873      1627.5985      4329.3098    
     40430   219.29992     -931.81226      720.5968       4333.1372    
     40440   196.07058     -931.15332     -324.64247      4337.6637    
     40450   199.76841     -931.24244     -1424.8812      4341.9103    
     40460   208.39529     -931.46766     -2190.0661      4344.8659    
     40470   194.08071     -931.05995     -2383.1814      4345.8155    
     40480   188.84077     -930.90672     -2145.1964      4344.5495    
     40490   191.32615     -930.96515     -1478.8901      4341.2853    
     40500   188.92272     -930.882       -425.55154      4336.6456    
     40510   190.53198     -930.90255      756.68805      4331.6006    
     40520   194.62441     -930.98448      1823.2672      4327.2436    
     40530   198.59038     -931.05992      2543.1756      4324.5597    
     40540   205.29936     -931.21457      2717.4447      4324.2125    
     40550   201.05435     -931.07087      2338.4207      4326.379     
     40560   207.86293     -931.23845      1329.8103      4330.7135    
     40570   226.56004     -931.73922     -158.78942      4336.295     
     40580   202.2293      -931.0508      -1485.0829      4341.7848    
     40590   174.01389     -930.25447     -2373.9224      4345.9455    
     40600   196.30773     -930.85553     -2874.9129      4347.9137    
     40610   210.26021     -931.22351     -2738.705       4347.2212    
     40620   196.94529     -930.83994     -1882.0943      4343.9932    
     40630   209.04593     -931.1639      -673.33108      4339.0003    
     40640   217.91815     -931.39722      679.91773      4333.3682    
     40650   206.37675     -931.06713      1896.9663      4328.3494    
     40660   211.03202     -931.19245      2578.8216      4325.0547    
     40670   215.70124     -931.32881      2683.668       4324.1258    
     40680   194.38185     -930.75376      2321.6707      4325.684     
     40690   194.96684     -930.79204      1371.4959      4329.3913    
     40700   193.62631     -930.7772       137.20576      4334.398     
     40710   171.72869     -930.18595     -1005.7121      4339.5829    
     40720   191.52197     -930.74638     -2014.047       4343.8647    
     40730   223.52907     -931.65159     -2559.6942      4346.3068    
     40740   202.66712     -931.10668     -2349.8737      4346.4055    
     40750   196.73281     -930.98918     -1788.5528      4344.3083    
     40760   222.82928     -931.778       -1052.9611      4340.5238    
     40770   205.05156     -931.36456      28.695571      4335.762     
     40780   185.17268     -930.88756      1106.0863      4331.0109    
     40790   206.86748     -931.56629      1821.804       4327.2521    
     40800   194.2362      -931.29461      2334.9679      4325.18      
     40810   178.57695     -930.92899      2395.8866      4325.2598    
     40820   195.69575     -931.46862      1828.4131      4327.5457    
     40830   199.5107      -931.63715      922.44675      4331.5482    
     40840   189.42622     -931.41208     -212.14688      4336.4371    
     40850   187.61605     -931.40637     -1484.9877      4341.1528    
     40860   174.31762     -931.06927     -2404.2411      4344.5298    
     40870   169.15613     -930.94561     -2671.3333      4345.708     
     40880   185.7187      -931.41759     -2317.6419      4344.4133    
     40890   185.59192     -931.41826     -1388.3229      4340.9675    
     40900   191.98354     -931.59184     -215.6202       4336.2143    
     40910   205.53275     -931.95724      930.68016      4331.2349    
     40920   191.17639     -931.54408      1996.3641      4327.1078    
     40930   184.60161     -931.34427      2597.6441      4324.8043    
     40940   203.78793     -931.85738      2410.5953      4324.868     
     40950   194.64295     -931.58321      1748.9238      4327.1676    
     40960   173.6295      -930.97702      865.38335      4331.1199    
     40970   191.69873     -931.44474     -274.17954      4335.9006    
     40980   198.52088     -931.58569     -1365.6508      4340.4682    
     40990   171.73839     -930.78905     -2089.7528      4343.8129    
     41000   172.50855     -930.75265     -2394.6661      4345.238     
     41010   207.28775     -931.64557     -2180.0748      4344.4471    
     41020   208.5495      -931.60211     -1341.9581      4341.6427    
     41030   193.14374     -931.10502     -276.21684      4337.5745    
     41040   201.83521     -931.27876      649.73179      4333.2147    
     41050   209.50263     -931.42301      1425.8302      4329.4363    
     41060   193.25418     -930.91067      1998.1189      4326.9689    
     41070   192.36868     -930.83235      2102.5677      4326.3323    
     41080   203.20468     -931.08071      1766.8921      4327.6401    
     41090   200.1505      -930.94678      1141.0327      4330.6053    
     41100   199.62311     -930.88732      276.42202      4334.6563    
     41110   204.2626      -930.97166     -654.89594      4339.0025    
     41120   212.17552     -931.14947     -1515.3538      4342.7755    
     41130   209.32986     -931.0359      -2103.2569      4345.1694    
     41140   196.99849     -930.66766     -2222.636       4345.6304    
     41150   204.93975     -930.86763     -1881.4701      4344.0274    
     41160   214.10213     -931.10495     -1069.8769      4340.6737    
     41170   209.54158     -930.96614      31.940381      4336.3153    
     41180   216.06525     -931.1399       1030.671       4331.9555    
     41190   220.33896     -931.2598       1756.518       4328.5222    
     41200   195.58715     -930.58149      2216.1113      4326.7064    
     41210   193.93774     -930.54731      2150.4447      4326.9257    
     41220   208.183       -930.95583      1554.38        4329.1343    
     41230   202.39182     -930.8101       697.87182      4332.8137    
     41240   204.19397     -930.87602     -310.93255      4337.1782    
     41250   213.14297     -931.14339     -1300.9957      4341.2938    
     41260   197.30798     -930.72633     -1977.7036      4344.2451    
     41270   192.91028     -930.62906     -2283.35        4345.3791    
     41280   202.92145     -930.93558     -2079.5942      4344.4012    
     41290   200.01253     -930.88795     -1283.572       4341.4976    
     41300   207.32864     -931.12792     -203.86897      4337.3849    
     41310   225.17409     -931.67284      827.07331      4333.05      
     41320   211.55955     -931.36135      1698.1231      4329.4596    
     41330   206.78197     -931.31047      2081.3048      4327.4083    
     41340   214.50692     -931.62858      1888.8968      4327.26      
     41350   189.66945     -931.05491      1380.9312      4328.8718    
     41360   159.5695      -930.31392      659.4837       4331.7901    
     41370   177.42884     -930.88588     -265.01206      4335.3447    
     41380   192.8476      -931.3813      -1002.6165      4338.7042    
     41390   189.84331     -931.35572     -1409.4292      4341.1785    
     41400   192.83749     -931.48794     -1608.3955      4342.3607    
     41410   194.92533     -931.58897     -1557.5322      4342.0533    
     41420   191.10687     -931.51822     -1168.2376      4340.3009    
     41430   196.71673     -931.70364     -562.24125      4337.4481    
     41440   181.67793     -931.30595      244.4043       4334.0626    
     41450   178.48967     -931.2248       995.0704       4330.88      
     41460   197.63876     -931.75524      1475.9505      4328.5914    
     41470   191.5765      -931.582        1711.4615      4327.6609    
     41480   179.92919     -931.25093      1590.9107      4328.3124    
     41490   198.17562     -931.746        1026.8871      4330.4388    
     41500   194.15994     -931.6194       320.62718      4333.5517    
     41510   168.67767     -930.89269     -363.08525      4337.0091    
     41520   188.58127     -931.4181      -1121.8896      4340.1561    
     41530   209.04761     -931.95172     -1678.508       4342.2937    
     41540   187.02298     -931.30949     -1763.8387      4342.9068    
     41550   185.62789     -931.2439      -1587.5377      4341.8762    
     41560   194.28729     -931.45397     -1108.2328      4339.3597    
     41570   181.62456     -931.06935     -244.35195      4335.8073    
     41580   175.59176     -930.86419      722.57724      4332.0044    
     41590   196.92124     -931.41082      1467.9665      4328.8345    
     41600   204.47367     -931.5729       1914.6591      4327.0002    
     41610   185.87168     -931.01645      1999.7168      4326.93      
     41620   184.70235     -930.94819      1592.3278      4328.7099    
     41630   202.59844     -931.40661      804.1061       4331.9868    
     41640   203.88266     -931.40414     -86.073449      4336.0602    
     41650   199.44363     -931.24701     -961.74113      4340.1063    
     41660   215.3005      -931.65785     -1713.1151      4343.3016    
     41670   213.81928     -931.5962      -2096.2522      4344.9422    
     41680   193.02567     -931.0084      -2041.3498      4344.6503    
     41690   195.55849     -931.0714      -1624.8841      4342.4497    
     41700   203.44865     -931.28196     -856.47236      4338.719     
     41710   193.6499      -931.00027      148.58055      4334.164     
     41720   177.02065     -930.52367      1213.9948      4329.7148    
     41730   175.23854     -930.4493       2068.7282      4326.355     
     41740   198.34601     -931.05764      2411.656       4324.8725    
     41750   207.96828     -931.29039      2255.5462      4325.6122    
     41760   196.69127     -930.94934      1657.1048      4328.4583    
     41770   201.7555      -931.06454      651.31264      4332.8757    
     41780   209.41582     -931.25007     -462.32643      4337.9615    
     41790   205.10273     -931.10423     -1399.8676      4342.6941    
     41800   217.3492      -931.42324     -2152.2168      4346.1743    
     41810   226.37558     -931.66406     -2535.7447      4347.6844    
     41820   214.1562      -931.33198     -2372.0919      4346.8498    
     41830   204.87358     -931.09275     -1758.4986      4343.7919    
     41840   197.13109     -930.89885     -832.34829      4339.0612    
     41850   181.94056     -930.49099      337.78288      4333.5189    
     41860   186.59073     -930.62326      1506.6969      4328.2434    
     41870   193.22552     -930.8019       2454.4651      4324.3213    
     41880   190.9626      -930.73026      2986.314       4322.6412    
     41890   201.70921     -931.02095      2830.9351      4323.7034    
     41900   210.52615     -931.26101      1967.7584      4327.3943    
     41910   205.12473     -931.10815      689.69024      4332.9643    
     41920   212.31209     -931.30505     -759.28005      4339.2514    
     41930   209.18834     -931.21632     -2037.9898      4344.9205    
     41940   196.92733     -930.87804     -2918.1706      4348.7612    
     41950   197.64498     -930.90595     -3252.8303      4349.9178    
     41960   200.27357     -930.99383     -2865.0731      4348.0531    
     41970   205.35823     -931.15712     -1799.0693      4343.5016    
     41980   209.17609     -931.29121     -317.99901      4337.2329    
     41990   205.65959     -931.22673      1218.9163      4330.6091    
     42000   205.71766     -931.26891      2510.0631      4325.0545    
     42010   204.19997     -931.28017      3307.8827      4321.7728    
     42020   192.39792     -931.01849      3359.9896      4321.5131    
     42030   186.46756     -930.92484      2572.5471      4324.3508    
     42040   189.34685     -931.07514      1193.4449      4329.6071    
     42050   179.58755     -930.86384     -321.31965      4336.0556    
     42060   178.364       -930.87313     -1702.4404      4342.2998    
     42070   198.10384     -931.45637     -2742.9767      4347.0383    
     42080   209.31156     -931.80767     -3196.3486      4349.2772    
     42090   196.11162     -931.48912     -2963.2137      4348.5595    
     42100   190.05878     -931.36943     -2192.7564      4345.0613    
     42110   201.57379     -931.73609     -1031.6044      4339.4782    
     42120   189.92375     -931.45392      461.25599      4332.8939    
     42130   165.53682     -930.80084      1947.7252      4326.685     
     42140   184.75876     -931.3444       2934.1699      4322.2113    
     42150   208.18962     -932.00334      3354.1772      4320.4105    
     42160   187.15629     -931.43226      3223.2619      4321.7082    
     42170   185.1114      -931.38927      2246.3767      4325.9914    
     42180   197.91784     -931.75102      631.53613      4332.4025    
     42190   188.59551     -931.48743     -1074.5028      4339.4937    
     42200   178.72527     -931.19682     -2504.2917      4345.6842    
     42210   188.79507     -931.45048     -3418.0732      4349.6147    
     42220   189.46062     -931.43868     -3570.9747      4350.4027    
     42230   180.5156      -931.15963     -2990.2864      4347.8612    
     42240   178.00755     -931.05172     -1799.7059      4342.5024    
     42250   187.09184     -931.24829     -164.76881      4335.4241    
     42260   190.57988     -931.26854      1627.4445      4328.1413    
     42270   190.32091     -931.17246      3107.519       4322.304     
     42280   200.64146     -931.36665      3878.4917      4319.2798    
     42290   213.85278     -931.64756      3796.0863      4319.8054    
     42300   209.23217     -931.44929      2920.2133      4323.8496    
     42310   206.25807     -931.3115       1351.8764      4330.6459    
     42320   213.62065     -931.46325     -660.38676      4338.7743    
     42330   198.88799     -931.0023      -2559.6073      4346.3935    
     42340   188.18226     -930.6575      -3868.7589      4351.7215    
     42350   191.6627      -930.71228     -4261.3941      4353.5011    
     42360   195.92289     -930.79707     -3715.9006      4351.3154    
     42370   193.55319     -930.70362     -2351.2299      4345.6415    
     42380   199.33432     -930.83409     -466.19773      4337.7314    
     42390   207.70971     -931.02877      1531.015       4329.3288    
     42400   210.86965     -931.07727      3216.9863      4322.2807    
     42410   207.0006      -930.93921      4255.356       4318.1509    
     42420   209.03838     -930.98065      4324.6892      4317.9048    
     42430   217.59185     -931.21959      3383.4019      4321.6413    
     42440   213.30519     -931.11313      1743.6906      4328.5536    
     42450   201.79081     -930.80537     -249.29403      4337.1693    
     42460   202.06955     -930.81617     -2250.7857      4345.6519    
     42470   207.12958     -930.95547     -3789.9308      4352.1306    
     42480   203.94066     -930.8727      -4464.2011      4355.1397    
     42490   199.62192     -930.77054     -4162.1559      4354.0031    
     42500   205.22493     -930.95265     -3003.6534      4348.9645    
     42510   212.92312     -931.19563     -1223.86        4341.088     
     42520   208.3488      -931.09474      834.88303      4332.0256    
     42530   194.62927     -930.73169      2775.3703      4323.6866    
     42540   187.46499     -930.54355      4161.3081      4317.8594    
     42550   197.59229     -930.83751      4661.3547      4315.825     
     42560   216.46571     -931.38791      4175.8137      4318.0687    
     42570   218.26105     -931.48049      2828.1708      4324.1908    
     42580   212.26565     -931.36465      785.09861      4332.9866    
     42590   205.90386     -931.23423     -1549.6217      4342.5962    
     42600   195.36641     -930.98061     -3605.7931      4350.8575    
     42610   179.16163     -930.56477     -4846.9172      4355.8329    
     42620   181.29109     -930.66178     -5009.2323      4356.3182    
     42630   190.53217     -930.96484     -4028.2715      4352.1285    
     42640   187.27455     -930.92037     -2073.2472      4344.1661    
     42650   197.98457     -931.25212      355.17801      4334.2406    
     42660   220.36876     -931.90195      2672.8393      4324.599     
     42670   214.27689     -931.77205      4406.2169      4317.3819    
     42680   197.49801     -931.36725      5107.2268      4314.1754    
     42690   195.90235     -931.41071      4644.4505      4315.6394    
     42700   192.68495     -931.434        3217.3854      4321.3936    
     42710   176.24197     -931.09279      1113.8923      4330.1683    
     42720   177.08616     -931.21572     -1308.3988      4340.0453    
     42730   191.83455     -931.71578     -3456.9549      4348.7888    
     42740   177.58954     -931.40428     -4711.3159      4354.3897    
     42750   160.77504     -931.00779     -4914.5591      4355.6298    
     42760   173.38324     -931.42173     -4136.7323      4352.2789    
     42770   185.92781     -931.82587     -2436.579       4345.0615    
     42780   184.23899     -931.81651     -149.89846      4335.5636    
     42790   186.20942     -931.88467      2121.4958      4325.8996    
     42800   193.10182     -932.074        3847.6028      4318.1595    
     42810   181.10528     -931.73476      4813.0141      4313.9399    
     42820   169.42939     -931.40681      4787.7027      4314.1262    
     42830   179.01663     -931.66913      3676.8503      4318.7082    
     42840   195.39211     -932.11247      1759.1571      4326.7042    
     42850   180.22473     -931.66664     -406.6533       4336.3946    
     42860   166.15249     -931.23536     -2491.5804      4345.7742    
     42870   185.41002     -931.71444     -4193.9325      4352.8794    
     42880   191.46764     -931.8247      -5002.8671      4356.1099    
     42890   177.63564     -931.39769     -4694.4435      4354.6876    
     42900   180.74281     -931.45158     -3398.1613      4348.8811    
     42910   178.93268     -931.36384     -1294.0963      4339.912     
     42920   174.69604     -931.19544      1135.6395      4329.7401    
     42930   187.35346     -931.48097      3299.9153      4320.6078    
     42940   196.39307     -931.66302      4764.8038      4314.5011    
     42950   187.02059     -931.34911      5243.093       4312.7591    
     42960   187.75278     -931.33529      4522.518       4315.8143    
     42970   188.66788     -931.33362      2831.5171      4323.0401    
     42980   190.57526     -931.35398      550.30818      4332.9159    
     42990   200.23864     -931.57559     -1866.1225      4343.3517    
     43000   198.77102     -931.47914     -3857.2668      4352.1071    
     43010   198.91349     -931.43284     -5070.4502      4357.297     
     43020   197.78593     -931.36655     -5234.0434      4357.7649    
     43030   187.32023     -931.05645     -4233.4035      4353.3537    
     43040   184.53676     -930.961       -2270.7246      4345.0057    
     43050   199.15059     -931.33328      176.53702      4334.5572    
     43060   201.16252     -931.33712      2634.1032      4324.2911    
     43070   197.67513     -931.18235      4519.0304      4316.4609    
     43080   198.96102     -931.16736      5326.2084      4312.7705    
     43090   195.77621     -931.04342      4913.1459      4313.9518    
     43100   190.36883     -930.86854      3469.4938      4319.6444    
     43110   184.56664     -930.67818      1390.828       4328.5552    
     43120   189.85374     -930.77829     -910.40584      4338.7869    
     43130   200.51484     -931.0086      -2970.2276      4348.2114    
     43140   207.71676     -931.13788     -4351.1462      4354.9017    
     43150   219.7157      -931.41309     -4857.1907      4357.5426    
     43160   222.87135     -931.46661     -4420.704       4355.6482    
     43170   211.29123     -931.13338     -3076.6192      4349.6374    
     43180   208.46879     -931.0505      -1091.6732      4340.7799    
     43190   205.34312     -930.95236      1169.4881      4330.9401    
     43200   201.66198     -930.83         3193.7238      4322.2075    
     43210   209.27674     -931.0221       4489.8017      4316.4258    
     43220   203.06027     -930.84264      4845.1876      4314.7717    
     43230   188.81039     -930.45325      4174.78        4317.5619    
     43240   200.40549     -930.78467      2551.0912      4324.1839    
     43250   212.04396     -931.11172      398.41183      4333.169     
     43260   187.36795     -930.41969     -1670.9519      4342.5573    
     43270   188.98725     -930.44631     -3390.9774      4350.4099    
     43280   214.76819     -931.13974     -4447.6509      4355.1107    
     43290   210.99662     -931.02505     -4522.9481      4355.6734    
     43300   203.3542      -930.81961     -3654.3226      4352.0239    
     43310   219.78515     -931.29121     -2058.4341      4344.9833    
     43320   224.36345     -931.43893      17.455578      4336.063     
     43330   210.21972     -931.07077      2127.6766      4327.1957    
     43340   215.39797     -931.24834      3708.2773      4320.3106    
     43350   220.84807     -931.45954      4449.4105      4316.845     
     43360   198.12089     -930.91842      4253.0421      4317.4686    
     43370   177.56966     -930.44646      3086.6614      4321.9912    
     43380   185.86098     -930.77286      1206.8089      4329.3513    
     43390   190.96089     -931.00279     -809.69042      4337.8443    
     43400   179.7947      -930.76487     -2498.3232      4345.6111    
     43410   184.96489     -930.96617     -3687.5348      4351.0609    
     43420   205.92028     -931.6097      -4189.0863      4353.0725    
     43430   200.46482     -931.52922     -3722.9142      4351.195     
     43440   187.08826     -931.22673     -2430.2356      4345.8681    
     43450   192.39304     -931.43028     -684.91325      4338.3013    
     43460   204.80602     -931.81952      1184.2495      4330.128     
     43470   194.62415     -931.57034      2876.0783      4323.0841    
     43480   189.60804     -931.45763      3903.4734      4318.7007    
     43490   193.89906     -931.60437      4011.6814      4317.9023    
     43500   188.66663     -931.4891       3248.1659      4320.7867    
     43510   178.56314     -931.23293      1813.8729      4326.6601    
     43520   177.41761     -931.20984      6.5848773      4334.2114    
     43530   183.11559     -931.35762     -1767.9547      4341.7788    
     43540   187.25332     -931.44849     -3061.7094      4347.7221    
     43550   188.62571     -931.45825     -3636.3771      4350.8294    
     43560   192.71376     -931.54506     -3506.4858      4350.5505    
     43570   200.90137     -931.74829     -2751.0816      4347.0071    
     43580   194.35599     -931.54235     -1416.6109      4340.9243    
     43590   177.30886     -931.03772      257.46635      4333.5565    
     43600   181.48255     -931.10813      1846.3045      4326.4492    
     43610   183.54814     -931.10508      3121.5602      4321.0708    
     43620   178.223       -930.89223      3824.7776      4318.5818    
     43630   195.81462     -931.31552      3650.1185      4319.6016    
     43640   208.94096     -931.61519      2713.5297      4323.9779    
     43650   209.21242     -931.56531      1205.6718      4330.8579    
     43660   211.20833     -931.56858     -650.48098      4338.852     
     43670   203.13967     -931.29562     -2399.1431      4346.2515    
     43680   194.22303     -931.00515     -3635.8602      4351.4295    
     43690   199.70747     -931.1239      -4115.7168      4353.2251    
     43700   203.56887     -931.21049     -3709.0878      4351.1934    
     43710   192.71731     -930.89905     -2506.2155      4345.7228    
     43720   183.36609     -930.62776     -768.00174      4337.9477    
     43730   188.68651     -930.75196      1191.8647      4329.4964    
     43740   199.57685     -931.02016      2999.9311      4322.1827    
     43750   205.98893     -931.16585      4175.8574      4317.648     
     43760   209.19217     -931.23673      4394.079       4316.9483    
     43770   209.13575     -931.23467      3620.3251      4320.2773    
     43780   193.87363     -930.81792      2071.2157      4326.9363    
     43790   192.5711      -930.78152      21.848968      4335.5066    
     43800   210.26138     -931.26047     -2026.9742      4344.1071    
     43810   203.08765     -931.04503     -3500.5565      4350.8474    
     43820   201.27201     -930.98439     -4228.9509      4354.3331    
     43830   222.64096     -931.58156     -4130.1547      4353.8741    
     43840   213.28301     -931.34339     -3106.5943      4349.582     
     43850   193.64428     -930.82453     -1480.2508      4342.417     
     43860   208.42476     -931.25569      306.19023      4333.8956    
     43870   199.56512     -931.02319      2121.9926      4325.7002    
     43880   168.94142     -930.17566      3614.8048      4319.4984    
     43890   184.16924     -930.59497      4278.3516      4316.6251    
     43900   209.18603     -931.28844      4078.0643      4317.6844    
     43910   202.72401     -931.116        3105.221       4322.4968    
     43920   212.03181     -931.3862       1332.456       4330.1558    
     43930   216.10881     -931.50874     -769.86702      4339.049     
     43940   199.7488      -931.06054     -2639.6471      4347.2443    
     43950   192.98764     -930.87741     -3965.2773      4352.9891    
     43960   198.13504     -931.02971     -4488.2305      4355.0387    
     43970   206.77536     -931.2916      -4085.3567      4352.9068    
     43980   203.55037     -931.23616     -2772.0044      4346.9882    
     43990   186.3334      -930.79056     -760.77787      4338.5329    
     44000   186.92274     -930.8248       1387.5895      4329.409     
     44010   202.43881     -931.26317      3152.7404      4321.5935    
     44020   198.68162     -931.16825      4320.3013      4316.7089    
     44030   194.8816      -931.08374      4620.6923      4315.8022    
     44040   207.63093     -931.47447      3897.7828      4319.1301    
     44050   210.04959     -931.59361      2299.3473      4326.0339    
     44060   191.46245     -931.13069      169.87675      4335.0577    
     44070   194.93918     -931.2719      -2101.8115      4344.235     
     44080   200.9677      -931.4833      -3884.8087      4351.4685    
     44090   179.7542      -930.94352     -4699.7727      4355.0985    
     44100   169.43298     -930.70832     -4517.9462      4354.3484    
     44110   192.45334     -931.40407     -3444.9654      4349.3925    
     44120   199.20004     -931.64969     -1544.8989      4341.2692    
     44130   185.95036     -931.32807      759.90082      4331.7625    
     44140   189.60969     -931.46049      2828.5083      4322.995     
     44150   191.20275     -931.52875      4229.561       4316.8587    
     44160   185.98716     -931.41123      4703.9141      4314.6173    
     44170   183.22441     -931.36786      4212.4285      4316.6926    
     44180   185.01089     -931.45101      2851.2413      4322.6317    
     44190   193.52713     -931.71234      857.1748       4331.1898    
     44200   195.10877     -931.76749     -1293.5887      4340.543     
     44210   180.97328     -931.37138     -3122.306       4348.7033    
     44220   190.97542     -931.63833     -4396.6099      4353.9474    
     44230   198.97042     -931.85331     -4708.4377      4355.0958    
     44240   178.69295     -931.29023     -3902.8791      4351.874     
     44250   181.52398     -931.36578     -2410.3372      4345.0278    
     44260   189.97336     -931.57959     -456.03842      4335.9784    
     44270   172.59354     -931.05274      1760.8927      4326.5719    
     44280   176.12721     -931.08497      3597.635       4318.8305    
     44290   182.92136     -931.1887       4674.0468      4314.4211    
     44300   170.5024      -930.75557      4854.1247      4314.3142    
     44310   195.4179      -931.35819      3937.2241      4318.6463    
     44320   227.86167     -932.15536      2165.1293      4326.5866    
     44330   212.14195     -931.6227      -17.842517      4336.5263    
     44340   211.50991     -931.52181     -2405.0412      4346.4288    
     44350   217.83067     -931.62052     -4361.6893      4354.085     
     44360   184.79625     -930.64722     -5210.841       4357.6872    
     44370   171.23612     -930.23578     -4934.1866      4356.4282    
     44380   204.21488     -931.12249     -3672.6225      4350.5766    
     44390   200.05521     -930.97505     -1408.2878      4341.3707    
     44400   190.22861     -930.66395      1172.8387      4330.9207    
     44410   215.36111     -931.31223      3315.1668      4321.5981    
     44420   216.15822     -931.28855      4791.3704      4315.3749    
     44430   194.912       -930.67314      5261.0612      4313.5687    
     44440   205.98241     -930.9739       4423.7345      4316.5647    
     44450   209.12621     -931.06323      2696.8167      4323.6144    
     44460   190.35436     -930.54125      538.29941      4333.1475    
     44470   198.39459     -930.74956     -1781.6208      4343.1621    
     44480   216.00737     -931.2128      -3737.835       4351.5099    
     44490   206.7498      -930.93669     -4817.7826      4356.3739    
     44500   205.2519      -930.89384     -4897.0417      4356.7366    
     44510   207.5659      -930.97289     -3890.0873      4352.548     
     44520   201.83549     -930.83392     -1991.2875      4344.7805    
     44530   210.17126     -931.07992      235.52404      4335.2135    
     44540   215.27548     -931.22965      2367.199       4325.9273    
     44550   211.06291     -931.12253      3982.296       4318.8772    
     44560   215.24665     -931.2631       4671.6545      4315.5096    
     44570   205.41141     -931.03575      4416.2204      4316.4383    
     44580   182.50092     -930.45331      3297.6512      4321.418     
     44590   199.30726     -930.97118      1350.6562      4329.4012    
     44600   207.47715     -931.24408     -811.56939      4338.6209    
     44610   182.0017      -930.57193     -2679.979       4347.0842    
     44620   187.12422     -930.74086     -4136.4785      4353.0258    
     44630   207.59822     -931.3452      -4753.4875      4355.1       
     44640   189.15798     -930.88393     -4143.7846      4352.7685    
     44650   183.01367     -930.76647     -2636.8606      4346.6063    
     44660   210.3845      -931.57849     -658.85241      4338.0363    
     44670   209.93333     -931.61747      1559.4661      4328.931     
     44680   200.10789     -931.3959       3442.4035      4321.3248    
     44690   210.11648     -931.73818      4455.6755      4316.912     
     44700   204.20514     -931.66212      4458.9216      4316.5992    
     44710   190.70721     -931.38989      3434.2487      4320.3651    
     44720   185.12833     -931.33611      1686.7861      4327.2718    
     44730   182.66414     -931.35386     -326.81675      4335.7226    
     44740   180.42825     -931.35772     -2256.6119      4343.8521    
     44750   171.64676     -931.16054     -3691.069       4349.8704    
     44760   164.45406     -930.99299     -4301.8455      4352.4466    
     44770   181.52025     -931.49408     -4040.9483      4351.0136    
     44780   189.16557     -931.73182     -2827.8579      4345.8503    
     44790   167.48993     -931.14202     -825.63104      4338.1242    
     44800   181.11445     -931.51158      1242.1336      4329.6817    
     44810   202.45555     -932.07739      2976.6486      4322.437     
     44820   191.91055     -931.75499      4145.7492      4317.9786    
     44830   197.58551     -931.89113      4283.9099      4317.33      
     44840   211.58779     -932.26849      3351.4834      4320.595     
     44850   179.65972     -931.37468      1805.5929      4326.936     
     44860   166.83903     -931.00207     -138.85022      4334.9192    
     44870   186.57189     -931.51241     -2032.7915      4342.7541    
     44880   179.36253     -931.26052     -3295.9238      4348.703     
     44890   182.79341     -931.30494     -3880.0932      4351.5719    
     44900   200.37256     -931.7465      -3745.7975      4350.8187    
     44910   177.71504     -931.0793      -2748.6374      4346.6063    
     44920   178.72912     -931.07348     -1239.0795      4339.8722    
     44930   203.26178     -931.71171      523.69106      4332.0419    
     44940   183.64651     -931.12029      2331.6732      4324.7664    
     44950   178.21086     -930.92572      3559.4775      4319.6737    
     44960   207.07993     -931.68852      3937.2303      4317.8645    
     44970   192.67821     -931.26158      3656.9928      4319.6898    
     44980   183.36622     -930.98714      2532.4017      4324.8572    
     44990   209.71873     -931.69961      676.15434      4332.3201    
     45000   209.2095      -931.66044     -1206.5998      4340.3996    
     45010   199.16352     -931.35742     -2758.4418      4347.3475    
     45020   192.40034     -931.14722     -3768.6865      4351.7115    
     45030   186.77019     -930.97233     -3991.3423      4352.5595    
     45040   195.84028     -931.20998     -3368.1862      4349.7007    
     45050   199.27314     -931.29173     -2019.0599      4343.7408    
     45060   184.33011     -930.85667     -182.41997      4335.9646    
     45070   195.65443     -931.13876      1630.7391      4328.0722    
     45080   204.16833     -931.33192      3123.3251      4321.7394    
     45090   195.62914     -931.0539       3994.276       4318.317     
     45100   200.98355     -931.17015      3915.121       4318.565     
     45110   208.55711     -931.3551       2930.349       4322.3942    
     45120   188.74184     -930.78186      1457.9967      4328.9155    
     45130   186.53589     -930.6903      -326.17832      4336.7597    
     45140   200.93266     -931.04322     -2109.2783      4344.2748    
     45150   210.53721     -931.25583     -3398.6465      4349.8166    
     45160   206.13724     -931.08712     -3844.5663      4352.1962    
     45170   202.84561     -930.96148     -3503.4506      4350.9957    
     45180   211.93721     -931.18748     -2496.7086      4346.5494    
     45190   210.64006     -931.12773     -931.57415      4339.8289    
     45200   203.42881     -930.90221      832.05307      4332.3004    
     45210   212.03596     -931.11245      2376.2863      4325.5911    
     45220   213.44127     -931.12591      3433.514       4321.1139    
     45230   199.55375     -930.72528      3757.2651      4319.8146    
     45240   205.37884     -930.88184      3150.1638      4321.9562    
     45250   212.81448     -931.08871      1869.9128      4326.9824    
     45260   191.69153     -930.50256      300.82149      4333.724     
     45270   179.51211     -930.15471     -1325.8143      4340.7233    
     45280   199.50216     -930.68642     -2646.0829      4346.4762    
     45290   214.70005     -931.08        -3273.0239      4349.7686    
     45300   212.20381     -930.99079     -3137.1038      4350.0204    
     45310   220.07367     -931.2012      -2470.8291      4347.3541    
     45320   228.92203     -931.45087     -1394.1545      4342.4116    
     45330   216.65642     -931.12796     -17.190421      4336.2189    
     45340   193.02894     -930.49375      1384.971       4330.06      
     45350   202.23975     -930.77258      2377.9044      4325.2085    
     45360   212.97959     -931.10419      2879.2539      4322.5746    
     45370   196.67046     -930.6985       2937.8762      4322.6151    
     45380   198.95888     -930.81904      2375.314       4325.355     
     45390   211.8012      -931.24517      1213.5724      4330.2627    
     45400   199.127       -930.96821     -206.62307      4336.2763    
     45410   197.53158     -930.99742     -1587.3877      4342.0824    
     45420   202.21475     -931.20306     -2594.9505      4346.4063    
     45430   192.61993     -931.0143      -3002.881       4348.3166    
     45440   188.43223     -930.97286     -2789.7466      4347.4369    
     45450   198.46114     -931.32514     -2029.2827      4343.9777    
     45460   201.98781     -931.49436     -832.57843      4338.6674    
     45470   198.88564     -931.47274      535.33011      4332.6258    
     45480   188.93737     -931.24982      1808.915       4327.1209    
     45490   181.2011      -931.07439      2711.864       4323.3164    
     45500   195.48042     -931.50484      2997.5317      4322.02      
     45510   200.86556     -931.68959      2667.5962      4323.4861    
     45520   191.38215     -931.46127      1732.6507      4327.3966    
     45530   181.71551     -931.21896      369.81418      4332.8873    
     45540   177.05614     -931.10087     -1055.9088      4338.7067    
     45550   174.88134     -931.03591     -2144.7228      4343.5459    
     45560   188.57915     -931.40172     -2714.2871      4346.3903    
     45570   201.54314     -931.74324     -2645.7802      4346.7184    
     45580   211.73955     -932.01176     -2051.2387      4344.5952    
     45590   210.35986     -931.96484     -1109.0055      4340.5834    
     45600   195.37292     -931.54312     -57.764249      4335.5637    
     45610   179.4972      -931.09099      927.60999      4330.5181    
     45620   180.70902     -931.10366      1730.5333      4326.3583    
     45630   164.98976     -930.6335       2342.6503      4323.83      
     45640   161.52905     -930.49239      2492.1089      4323.4694    
     45650   193.95898     -931.32842      2098.11        4325.3997    
     45660   207.66413     -931.6264       1390.9094      4329.2686    
     45670   199.15423     -931.30701      374.61183      4334.4116    
     45680   213.78509     -931.63041     -938.65798      4339.8719    
     45690   222.50316     -931.79072     -2078.2555      4344.4527    
     45700   202.1546      -931.16079     -2656.6352      4347.1104    
     45710   193.51566     -930.87187     -2684.4877      4347.2984    
     45720   197.58889     -930.9419      -2170.5771      4344.9996    
     45730   206.4007      -931.1471      -1213.7277      4340.7058    
     45740   214.19707     -931.32935     -14.899123      4335.3152    
     45750   193.29753     -930.71999      1254.2507      4329.9512    
     45760   186.14053     -930.49372      2201.9041      4325.7679    
     45770   207.52399     -931.06044      2630.4364      4323.6262    
     45780   198.28852     -930.78338      2652.7326      4323.9265    
     45790   184.95915     -930.39879      2136.9985      4326.6706    
     45800   222.52223     -931.4294       959.12622      4331.3572    
     45810   220.8761      -931.37619     -309.92051      4336.934     
     45820   190.89978     -930.54158     -1453.5972      4342.2231    
     45830   207.57559     -931.002       -2483.6224      4346.1393    
     45840   211.53856     -931.11371     -2902.4639      4347.7541    
     45850   186.50634     -930.42551     -2524.5929      4346.6933    
     45860   206.97743     -931.00181     -1732.7399      4343.2893    
     45870   231.6874      -931.70005     -598.81787      4338.3006    
     45880   209.99427     -931.11753      766.79475      4332.7991    
     45890   200.95074     -930.88699      1855.3589      4328.0253    
     45900   212.66817     -931.23494      2437.0668      4324.9744    
     45910   204.73162     -931.0433       2564.1784      4324.1857    
     45920   192.41523     -930.73242      2190.1266      4325.7637    
     45930   196.39458     -930.87216      1333.3735      4329.354     
     45940   193.05873     -930.80316      241.25079      4334.1743    
     45950   191.40513     -930.77258     -915.1804       4339.2113    
     45960   205.42347     -931.17231     -1917.5572      4343.392     
     45970   208.26169     -931.26405     -2433.3315      4345.7992    
     45980   199.58819     -931.04219     -2423.1763      4345.9497    
     45990   196.00782     -930.96494     -1944.666       4343.8547    
     46000   194.7162      -930.94962     -1057.2348      4339.9727    
     46010   202.8435      -931.19232      0.48994245     4335.1296    
     46020   212.65015     -931.48254      1081.1884      4330.3141    
     46030   194.69928     -931.0037       2077.819       4326.5326    
     46040   189.55748     -930.87952      2564.224       4324.6739    
     46050   209.46937     -931.45506      2408.0334      4325.1725    
     46060   203.32733     -931.31383      1872.5634      4327.9023    
     46070   202.62897     -931.32885      890.84639      4332.3515    
     46080   216.75178     -931.76202     -436.66954      4337.6074    
     46090   200.20296     -931.35142     -1692.3141      4342.4563    
     46100   177.28689     -930.76294     -2607.2065      4345.7331    
     46110   186.02012     -931.05548     -2982.5258      4346.586     
     46120   175.95503     -930.82845     -2498.825       4344.696     
     46130   171.83392     -930.7611      -1434.8317      4340.5056    
     46140   194.51616     -931.43522     -166.14183      4334.9989    
     46150   189.50875     -931.33835      1235.1406      4329.3754    
     46160   186.19671     -931.2852       2384.6983      4324.9166    
     46170   207.78865     -931.933        2917.9839      4322.6579    
     46180   193.10588     -931.58683      2884.4788      4323.0969    
     46190   186.28147     -931.46447      2120.5356      4326.1788    
     46200   201.68546     -931.96618      821.72999      4331.2041    
     46210   187.39803     -931.64405     -474.61948      4337.0028    
     46220   176.28698     -931.39853     -1660.9413      4342.3618    
     46230   195.27142     -931.98551     -2691.7873      4346.1604    
     46240   185.47003     -931.77452     -3087.486       4347.4663    
     46250   168.63538     -931.36086     -2733.0852      4345.9171    
     46260   174.77862     -931.57631     -1830.4572      4341.8391    
     46270   169.0572      -931.44695     -492.36272      4336.0918    
     46280   169.05384     -931.45749      903.3297       4329.9125    
     46290   174.14255     -931.59182      2064.5882      4324.5884    
     46300   163.30802     -931.26871      2912.8524      4321.1954    
     46310   172.63542     -931.4939       3183.5393      4320.4922    
     46320   196.78971     -932.11767      2717.4308      4322.7094    
     46330   188.46957     -931.83071      1722.4719      4327.4299    
     46340   189.36139     -931.79316      329.38162      4333.7329    
     46350   204.78645     -932.14386     -1165.7812      4340.3363    
     46360   192.64912     -931.72237     -2381.762       4345.8624    
     46370   179.7044      -931.28304     -3198.3109      4349.1667    
     46380   197.52796     -931.6989      -3490.9064      4349.4836    
     46390   193.6492      -931.51592     -2928.1699      4346.5731    
     46400   163.6852      -930.62062     -1562.8539      4340.9782    
     46410   169.63893     -930.72103      129.34968      4333.9634    
     46420   205.60786     -931.63963      1749.2465      4327.0972    
     46430   202.40474     -931.47333      3082.5669      4321.8807    
     46440   182.90615     -930.87574      3728.4772      4319.5134    
     46450   197.38407     -931.23654      3456.958       4320.5641    
     46460   200.49986     -931.29047      2503.8234      4324.7954    
     46470   188.59215     -930.93315      1016.3132      4331.3286    
     46480   203.62999     -931.32039     -809.05853      4338.7855    
     46490   213.53882     -931.56086     -2396.5496      4345.4966    
     46500   201.02305     -931.18538     -3359.3712      4349.9893    
     46510   193.49257     -930.95763     -3650.4114      4351.3516    
     46520   191.81641     -930.89799     -3258.1694      4349.3148    
     46530   193.90274     -930.94371     -2186.2484      4344.2649    
     46540   200.99742     -931.12339     -516.16386      4337.229     
     46550   205.50886     -931.22327      1380.423       4329.7653    
     46560   208.00964     -931.26389      2907.0552      4323.6058    
     46570   212.56319     -931.36772      3684.4409      4320.1351    
     46580   205.10695     -931.15065      3667.2695      4320.06      
     46590   200.98152     -931.03659      2814.4788      4323.3486    
     46600   203.62159     -931.11307      1300.2561      4329.2149    
     46610   187.41623     -930.65984     -394.40757      4336.2827    
     46620   181.52358     -930.48112     -1924.9203      4342.9847    
     46630   196.21501     -930.8628      -2975.7855      4347.8992    
     46640   204.24289     -931.05689     -3302.8115      4350.0524    
     46650   209.14284     -931.17043     -3003.8678      4349.1302    
     46660   214.03464     -931.29203     -2205.6964      4345.4174    
     46670   201.78763     -930.94234     -913.89899      4339.6872    
     46680   194.85654     -930.73664      616.52658      4333.151     
     46690   211.84904     -931.18863      1971.9958      4327.2164    
     46700   214.80365     -931.25173      2959.0557      4323.1335    
     46710   211.71644     -931.15845      3308.6188      4321.7884    
     46720   213.06421     -931.20226      2882.905       4323.4821    
     46730   201.02521     -930.88351      1868.3889      4327.8268    
     46740   198.55072     -930.83073      409.86756      4333.8818    
     46750   208.07116     -931.10828     -1199.471       4340.2999    
     46760   195.05209     -930.75833     -2447.0369      4345.6081    
     46770   191.51937     -930.67272     -3148.4875      4348.6389    
     46780   203.74875     -931.03039     -3197.9851      4348.7402    
     46790   195.64115     -930.83051     -2474.3595      4345.8881    
     46800   190.63938     -930.71728     -1218.1312      4340.7639    
     46810   207.76019     -931.21614      207.62197      4334.5376    
     46820   207.7009      -931.23829      1662.0266      4328.5495    
     46830   206.73073     -931.24061      2786.8138      4324.129     
     46840   215.44739     -931.52643      3213.1771      4322.2836    
     46850   203.58267     -931.25817      2909.9309      4323.3958    
     46860   191.45361     -930.98928      1954.1755      4327.1783    
     46870   198.10365     -931.24299      533.20059      4332.7467    
     46880   191.34703     -931.12039     -931.70839      4338.8024    
     46890   182.71828     -930.93554     -2154.3048      4343.9877    
     46900   194.22979     -931.30582     -2939.1294      4347.1621    
     46910   192.59631     -931.31354     -3002.6663      4347.6124    
     46920   183.9538      -931.12387     -2361.4921      4345.2888    
     46930   203.36384     -931.7122      -1340.2296      4340.7838    
     46940   202.0234      -931.72355     -17.572095      4335.074     
     46950   180.75192     -931.17245      1360.9989      4329.3916    
     46960   181.91276     -931.23171      2374.3464      4324.9919    
     46970   197.99557     -931.70172      2800.4141      4322.7923    
     46980   187.96105     -931.4469       2702.2686      4323.1844    
     46990   178.97388     -931.21773      2016.4237      4326.0578    
     47000   192.99127     -931.62003      829.37353      4330.7717    
     47010   190.59914     -931.5583      -469.51412      4336.2432    
     47020   162.65511     -930.77466     -1561.8655      4341.2773    
     47030   176.61587     -931.14056     -2404.6887      4344.8432    
     47040   207.25273     -931.95565     -2684.229       4346.1759    
     47050   196.04131     -931.60586     -2244.6005      4345.0355    
     47060   192.5214      -931.47009     -1461.2596      4341.8166    
     47070   208.53677     -931.86775     -496.89728      4337.2599    
     47080   195.98952     -931.46378      667.19299      4332.2879    
     47090   178.26437     -930.91048      1691.0896      4327.9658    
     47100   190.60472     -931.17881      2272.3272      4325.22      
     47110   199.05808     -931.32313      2427.3703      4324.5856    
     47120   194.63115     -931.1059       2100.2094      4326.1906    
     47130   198.53188     -931.11847      1283.0502      4329.7185    
     47140   199.12304     -931.03706      210.29336      4334.4207    
     47150   207.82738     -931.18387     -956.2852       4339.2981    
     47160   203.51164     -930.97781     -1891.0118      4343.2799    
     47170   185.76101     -930.41558     -2368.7612      4345.5041    
     47180   188.34548     -930.42974     -2377.0183      4345.5258    
     47190   209.7845      -930.97387     -1884.619       4343.3504    
     47200   209.73426     -930.9315      -847.44135      4339.4649    
     47210   210.74214     -930.9302       344.26341      4334.8254    
     47220   226.22628     -931.34035      1349.1001      4330.5285    
     47230   224.23914     -931.27965      2128.6415      4327.5122    
     47240   214.20039     -931.01002      2444.3841      4326.4754    
     47250   223.29907     -931.28483      2041.222       4327.6773    
     47260   219.00111     -931.19943      1161.5651      4330.7526    
     47270   197.70054     -930.64439      85.065045      4334.8931    
     47280   187.30135     -930.38431     -1011.757       4339.0978    
     47290   185.51832     -930.35328     -1843.238       4342.357     
     47300   185.00135     -930.34978     -2163.5108      4343.9099    
     47310   192.0117      -930.55011     -1924.8687      4343.4662    
     47320   211.1838      -931.08742     -1253.899       4341.252     
     47330   220.201       -931.34724     -350.87328      4337.8978    
     47340   226.25967     -931.53613      488.32195      4334.2364    
     47350   224.3132      -931.51773      1137.3471      4331.0487    
     47360   204.32081     -931.00911      1535.0628      4328.9335    
     47370   187.60223     -930.5906       1595.3095      4328.2469    
     47380   189.05246     -930.6725       1348.2013      4329.0374    
     47390   190.74697     -930.75554      935.63749      4331.0793    
     47400   205.81534     -931.20824      355.84004      4333.9786    
     47410   217.67351     -931.57682     -286.04622      4337.1984    
     47420   212.80446     -931.48979     -917.87316      4340.14      
     47430   202.38978     -931.2541      -1477.1838      4342.2139    
     47440   195.4451      -931.11586     -1764.3678      4342.9127    
     47450   189.22512     -930.99489     -1623.7885      4341.9871    
     47460   191.80835     -931.1148      -1142.8397      4339.5708    
     47470   185.1079      -930.97046     -362.03922      4336.1263    
     47480   182.97023     -930.94194      532.46943      4332.3804    
     47490   198.13022     -931.38726      1275.3412      4329.1509    
     47500   194.50261     -931.30822      1810.0744      4327.1264    
     47510   187.05315     -931.1205       1955.9795      4326.7824    
     47520   199.89637     -931.49532      1551.2143      4328.2292    
     47530   193.27101     -931.32861      868.63072      4331.1039    
     47540   177.13717     -930.89106      116.73848      4334.779     
     47550   202.02272     -931.58485     -761.20564      4338.5377    
     47560   217.17923     -932.00722     -1484.9869      4341.5789    
     47570   196.73259     -931.44753     -1813.7216      4343.2447    
     47580   194.24237     -931.39021     -1861.0692      4343.2195    
     47590   201.36063     -931.6026      -1534.899       4341.4765    
     47600   176.97491     -930.93824     -694.56174      4338.3514    
     47610   179.22273     -931.00462      187.56367      4334.603     
     47620   210.18068     -931.85906      839.37611      4331.042     
     47630   195.89106     -931.45417      1424.1938      4328.2943    
     47640   166.84102     -930.63604      1783.7079      4326.8857    
     47650   178.49953     -930.93603      1654.8337      4327.1177    
     47660   189.21286     -931.18978      1216.8247      4328.877     
     47670   181.16575     -930.90655      630.00686      4331.7597    
     47680   194.11702     -931.19065     -85.186306      4335.2102    
     47690   207.56432     -931.47023     -661.89103      4338.5798    
     47700   208.57796     -931.4015      -1080.7542      4341.3278    
     47710   217.42676     -931.5557      -1482.9381      4343.0486    
     47720   221.60974     -931.59082     -1666.5048      4343.3863    
     47730   216.67638     -931.38974     -1452.8403      4342.1923    
     47740   213.7817      -931.26096     -953.82284      4339.6671    
     47750   191.63415     -930.60608     -209.05002      4336.2901    
     47760   183.45694     -930.33974      551.12162      4332.7477    
     47770   204.90673     -930.88892      1131.176       4329.7365    
     47780   200.95653     -930.73034      1609.3608      4327.804     
     47790   182.6382      -930.17689      1837.4922      4327.3761    
     47800   208.54467     -930.85053      1558.3556      4328.6322    
     47810   221.74545     -931.16976      1004.3597      4331.324     
     47820   198.26604     -930.48031      350.26488      4334.9422    
     47830   211.65413     -930.81938     -530.99348      4338.8546    
     47840   234.44013     -931.42244     -1353.941       4342.257     
     47850   218.21557     -930.95826     -1820.1744      4344.4016    
     47860   201.8057      -930.50225     -1974.894       4344.8489    
     47870   215.25028     -930.88289     -1787.3018      4343.4642    
     47880   213.17599     -930.84004     -1050.8905      4340.4588    
     47890   210.25957     -930.78045     -36.246559      4336.5155    
     47900   220.20915     -931.08572      872.6769       4332.5638    
     47910   212.77678     -930.91837      1539.9866      4329.4463    
     47920   205.06917     -930.75193      1837.2255      4327.7679    
     47930   205.89719     -930.83025      1770.8778      4327.7959    
     47940   201.52404     -930.77009      1359.8862      4329.4591    
     47950   198.35775     -930.74526      597.68945      4332.3625    
     47960   200.34092     -930.86345     -252.78789      4335.808     
     47970   196.21213     -930.81026     -884.53506      4339.0215    
     47980   199.12333     -930.95035     -1338.4051      4341.4041    
     47990   207.43837     -931.24364     -1606.4507      4342.5326    
     48000   203.11061     -931.18909     -1522.8702      4342.1769    
     48010   201.08637     -931.19875     -1125.0299      4340.4214    
     48020   202.59127     -931.30492     -500.6431       4337.6441    
     48030   198.91295     -931.26264      239.54561      4334.4323    
     48040   198.30734     -931.29983      866.17094      4331.4635    
     48050   188.17292     -931.06425      1330.0845      4329.3197    
     48060   182.96889     -930.95339      1567.969       4328.4232    
     48070   204.69604     -931.58458      1421.6032      4328.9731    
     48080   209.73591     -931.75344      987.11326      4330.8331    
     48090   187.07471     -931.14974      419.22888      4333.604     
     48100   195.04813     -931.38908     -321.76763      4336.7433    
     48110   204.60593     -931.66823     -1042.6857      4339.5696    
     48120   177.57141     -930.92564     -1477.1683      4341.4301    
     48130   179.86092     -930.98954     -1700.3666      4341.9099    
     48140   198.13995     -931.49122     -1570.2042      4340.8194    
     48150   179.57594     -930.96543     -910.99765      4338.3096    
     48160   180.1169      -930.96433     -62.398685      4334.9806    
     48170   206.6717      -931.67766      711.12618      4331.6142    
     48180   201.29563     -931.50412      1424.9776      4328.9393    
     48190   187.41059     -931.09843      1861.8504      4327.5997    
     48200   196.27614     -931.32537      1774.5558      4327.972     
     48210   194.91066     -931.26732      1287.655       4329.9771    
     48220   197.08533     -931.30805      528.4946       4333.1615    
     48230   204.9988      -931.50737     -343.56156      4336.8214    
     48240   203.01576     -931.43296     -1115.9832      4340.1541    
     48250   205.89172     -931.49755     -1696.7066      4342.4396    
     48260   196.95526     -931.23819     -1931.6405      4343.1484    
     48270   182.92291     -930.83863     -1729.1876      4342.0747    
     48280   181.92422     -930.79634     -1121.0185      4339.4182    
     48290   187.55814     -930.92975     -210.08638      4335.7547    
     48300   190.16268     -930.97054      812.68062      4331.9343    
     48310   204.84881     -931.34244      1573.2234      4328.8845    
     48320   213.19525     -931.5407       1916.3503      4327.2988    
     48330   202.16001     -931.21017      1887.856       4327.4918    
     48340   192.3485      -930.91929      1469.9275      4329.4256    
     48350   202.45052     -931.18087      629.9721       4332.6968    
     48360   205.49887     -931.24543     -344.05833      4336.5378    
     48370   187.63537     -930.72895     -1109.509       4340.0606    
     48380   198.58522     -931.01037     -1629.522       4342.5466    
     48390   226.84424     -931.77367     -1860.8982      4343.5125    
     48400   205.63918     -931.17491     -1635.8809      4342.7643    
     48410   180.13856     -930.46183     -1129.4838      4340.5092    
     48420   206.11534     -931.17472     -536.69121      4337.2151    
     48430   202.62378     -931.06569      363.7573       4333.4709    
     48440   180.96192     -930.44999      1300.7665      4330.1016    
     48450   208.51838     -931.19728      1783.2216      4327.9372    
     48460   218.58156     -931.45978      1919.0494      4327.4337    
     48470   203.59562     -931.03642      1717.6814      4328.7091    
     48480   215.93267     -931.3796       1028.3839      4331.5516    
     48490   211.95951     -931.27562      118.18961      4335.3349    
     48500   190.97759     -930.70217     -820.77701      4339.2164    
     48510   190.39463     -930.69226     -1665.6116      4342.3197    
     48520   192.87387     -930.76353     -2078.5615      4343.8799    
     48530   195.79093     -930.84547     -1958.9542      4343.5225    
     48540   207.04789     -931.16027     -1494.9251      4341.3531    
     48550   196.8545      -930.88041     -670.38634      4337.8251    
     48560   190.04333     -930.69168      364.44641      4333.7118    
     48570   205.17432     -931.10647      1321.9829      4329.964     
     48580   216.19136     -931.40668      2030.3791      4327.4631    
     48590   223.50126     -931.61558      2263.1354      4326.844     
     48600   222.8128      -931.62243      1898.781       4328.3036    
     48610   205.42635     -931.18181      1081.6945      4331.5053    
     48620   199.47521     -931.06511      2.5561751      4335.693     
     48630   191.23739     -930.88505     -1085.0063      4339.8712    
     48640   176.39172     -930.51316     -1938.3426      4343.0349    
     48650   188.7865      -930.89245     -2359.1786      4344.3963    
     48660   193.62393     -931.0612      -2116.6496      4343.5869    
     48670   184.52361     -930.83981     -1359.6676      4340.8343    
     48680   195.47113     -931.16944     -405.29344      4336.8383    
     48690   209.10846     -931.57212      607.34319      4332.495     
     48700   196.79983     -931.2542       1549.6956      4328.7481    
     48710   196.47662     -931.26888      2084.4218      4326.445     
     48720   202.63021     -931.46619      2129.5641      4326.0695    
     48730   191.86982     -931.19542      1789.2214      4327.6642    
     48740   192.34921     -931.23468      1051.3927      4330.9007    
     48750   207.92467     -931.69098      35.295803      4335.0938    
     48760   211.22742     -931.80942     -980.26714      4339.3104    
     48770   190.84983     -931.27208     -1738.3379      4342.6155    
     48780   174.29797     -930.83539     -2139.8204      4344.3026    
     48790   180.49289     -931.02189     -2123.2301      4344.003     
     48800   200.05534     -931.57479     -1641.5231      4341.7455    
     48810   197.10418     -931.50037     -717.94133      4337.9966    
     48820   184.57476     -931.15511      321.43373      4333.608     
     48830   189.61978     -931.28996      1177.6705      4329.5346    
     48840   185.60553     -931.16507      1828.7191      4326.5755    
     48850   175.09367     -930.85244      2169.3949      4325.3231    
     48860   187.74052     -931.17426      2019.9644      4326.0699    
     48870   201.12275     -931.50635      1452.2183      4328.6761    
     48880   201.03149     -931.45942      636.99266      4332.6201    
     48890   201.75473     -931.43164     -313.88443      4337.1442    
     48900   212.5682      -931.6804      -1300.2844      4341.3606    
     48910   210.50207     -931.57285     -2075.3136      4344.36      
     48920   191.98006     -931.01505     -2378.2314      4345.4348    
     48930   187.85187     -930.8588      -2144.2573      4344.3098    
     48940   198.39671     -931.1042      -1438.01        4341.2114    
     48950   196.47729     -930.99674     -361.82558      4336.8101    
     48960   190.10925     -930.76049      818.23093      4332.1068    
     48970   214.94865     -931.38393      1700.1902      4328.1746    
     48980   217.3167      -931.38344      2257.74        4325.8343    
     48990   192.80718     -930.6503       2400.6157      4325.5907    
     49000   200.76541     -930.82557      1874.8481      4327.5449    
     49010   210.72538     -931.05465      871.59982      4331.2153    
     49020   186.08608     -930.32462     -153.36479      4335.6992    
     49030   192.2925      -930.44963     -1133.1088      4340.0334    
     49040   212.34115     -930.95121     -1856.3938      4343.3127    
     49050   205.22704     -930.7028      -2069.2073      4344.8784    
     49060   206.86925     -930.70696     -1829.8586      4344.528     
     49070   232.13717     -931.37453     -1277.4898      4342.4838    
     49080   240.17613     -931.57997     -494.90746      4339.2702    
     49090   227.29893     -931.22731      337.44664      4335.617     
     49100   216.2163      -930.94006      979.03247      4332.288     
     49110   208.62421     -930.75754      1342.1325      4329.8761    
     49120   204.22786     -930.66934      1445.5208      4328.7168    
     49130   188.04852     -930.25322      1379.2007      4328.9094    
     49140   189.12333     -930.31092      1069.2323      4330.3797    
     49150   205.64681     -930.79523      538.33814      4332.8362    
     49160   206.809       -930.85419     -95.787908      4335.7896    
     49170   208.7308      -930.93792     -759.11766      4338.6486    
     49180   209.88341     -931.00655     -1273.1326      4340.8029    
     49190   194.62685     -930.62265     -1460.3172      4341.7849    
     49200   198.81961     -930.77949     -1372.2198      4341.4143    
     49210   212.16327     -931.19674     -968.14851      4339.7829    
     49220   205.5077      -931.06564     -263.3251       4337.2774    
     49230   212.31008     -931.31653      424.70489      4334.5368    
     49240   219.01337     -931.58059      946.54722      4332.1975    
     49250   205.24443     -931.29012      1256.8493      4330.7446    
     49260   204.92856     -931.38272      1224.6556      4330.4533    
     49270   206.45879     -931.53886      895.50889      4331.2935    
     49280   185.24386     -931.05941      436.98325      4332.9692    
     49290   175.16585     -930.86848     -132.95467      4335.0479    
     49300   181.06342     -931.10137     -699.26547      4337.0023    
     49310   179.60247     -931.11031     -1033.7772      4338.3192    
     49320   178.52514     -931.11097     -1084.6587      4338.688     
     49330   182.45484     -931.23544     -891.90179      4338.059     
     49340   189.25627     -931.4285      -477.31563      4336.6152    
     49350   199.64801     -931.71616      76.681425      4334.7427    
     49360   195.4281      -931.59564      615.71723      4332.9524    
     49370   197.15679     -931.63949      891.3945       4331.7281    
     49380   203.41669     -931.80949      911.00153      4331.3289    
     49390   195.74003     -931.59361      746.22683      4331.7777    
     49400   186.09531     -931.32157      392.97556      4332.9168    
     49410   184.34809     -931.26297     -47.811589      4334.4221    
     49420   184.9083      -931.26119     -390.93609      4335.894     
     49430   180.78358     -931.12169     -538.8464       4337.0182    
     49440   187.72028     -931.2819      -603.07047      4337.6453    
     49450   199.64245     -931.57344     -621.81716      4337.7128    
     49460   201.45501     -931.58279     -528.5907       4337.209     
     49470   183.24032     -931.03657     -256.83428      4336.2298    
     49480   185.50182     -931.05545      22.594492      4335.0156    
     49490   209.2944      -931.66359      235.09704      4333.8233    
     49500   198.75239     -931.31713      493.16264      4332.8644    
     49510   181.99143     -930.80236      664.29634      4332.3694    
     49520   203.55266     -931.34781      566.23479      4332.4809    
     49530   201.61568     -931.23635      419.07843      4333.1279    
     49540   177.6228      -930.51701      267.02221      4334.1753    
     49550   190.47737     -930.81756     -43.122563      4335.4653    
     49560   218.72635     -931.53622     -377.06655      4336.7176    
     49570   212.05852     -931.29064     -460.43187      4337.6434    
     49580   205.71979     -931.0674      -438.79163      4338.15      
     49590   218.35525     -931.3782      -512.62088      4338.2404    
     49600   212.19989     -931.17627     -558.31991      4337.856     
     49610   194.14985     -930.65236     -406.45633      4336.969     
     49620   203.74973     -930.89778     -144.14784      4335.7129    
     49630   212.55412     -931.12188      192.67725      4334.3328    
     49640   192.33511     -930.54363      557.29876      4333.1431    
     49650   192.26578     -930.5245       736.74649      4332.4674    
     49660   214.70967     -931.128        714.4438       4332.4731    
     49670   208.05204     -930.92656      618.89549      4333.1528    
     49680   201.94301     -930.74618      334.5634       4334.4063    
     49690   207.15165     -930.8825      -111.61404      4335.9682    
     49700   193.49876     -930.49493     -448.55282      4337.444     
     49710   204.86556     -930.80148     -665.96418      4338.5136    
     49720   229.64306     -931.48383     -704.20522      4338.9771    
     49730   219.73097     -931.21657     -560.52774      4338.7994    
     49740   209.82308     -930.963       -434.64241      4338.0963    
     49750   212.21985     -931.0621      -268.05971      4336.9913    
     49760   199.29265     -930.74317      38.285656      4335.6515    
     49770   203.60619     -930.90953      246.0016       4334.342     
     49780   210.45617     -931.15848      381.89297      4333.2619    
     49790   191.64841     -930.70356      560.23475      4332.5504    
     49800   189.39675     -930.70978      595.74409      4332.3578    
     49810   205.08396     -931.22321      491.42062      4332.7193    
     49820   194.46488     -931.01333      393.30401      4333.5528    
     49830   194.24848     -931.09207      140.67525      4334.7516    
     49840   208.86314     -931.58931     -237.19203      4336.0816    
     49850   198.70258     -931.40141     -491.17893      4337.2094    
     49860   187.54697     -931.17606     -611.16519      4337.8943    
     49870   192.10516     -931.3769      -661.3858       4338.0147    
     49880   184.97455     -931.2411      -584.80253      4337.5279    
     49890   182.95368     -931.23167     -443.57267      4336.4982    
     49900   196.7435      -931.65182     -238.91547      4335.056     
     49910   187.17272     -931.41485      191.70756      4333.4092    
     49920   176.97561     -931.14807      633.11176      4331.9444    
     49930   198.47747     -931.7532       809.06069      4331.0519    
     49940   198.76689     -931.76557      884.7914       4330.9169    
     49950   183.48716     -931.34285      825.68526      4331.6103    
     49960   191.67276     -931.56706      483.55004      4333.0656    
     49970   188.81805     -931.47867      38.84272       4334.9825    
     49980   179.01533     -931.19119     -432.15539      4336.95      
     49990   199.16281     -931.72941     -934.78827      4338.5202    
     50000   201.76299     -931.77774     -1136.4893      4339.2466    
Loop time of 14.9084 on 1 procs for 50000 steps with 216 atoms

Performance: 289.769 ns/day, 0.083 hours/ns, 3353.808 timesteps/s, 724.423 katom-step/s
98.6% CPU use with 1 MPI tasks x 1 OpenMP threads

MPI task timing breakdown:
Section |  min time  |  avg time  |  max time  |%varavg| %total
---------------------------------------------------------------
Pair    | 14.017     | 14.017     | 14.017     |   0.0 | 94.02
Neigh   | 0          | 0          | 0          |   0.0 |  0.00
Comm    | 0.22671    | 0.22671    | 0.22671    |   0.0 |  1.52
Output  | 0.070351   | 0.070351   | 0.070351   |   0.0 |  0.47
Modify  | 0.53783    | 0.53783    | 0.53783    |   0.0 |  3.61
Other   |            | 0.05638    |            |       |  0.38

Nlocal:            216 ave         216 max         216 min
Histogram: 1 0 0 0 0 0 0 0 0 0
Nghost:            950 ave         950 max         950 min
Histogram: 1 0 0 0 0 0 0 0 0 0
Neighs:              0 ave           0 max           0 min
Histogram: 1 0 0 0 0 0 0 0 0 0
FullNghs:         7344 ave        7344 max        7344 min
Histogram: 1 0 0 0 0 0 0 0 0 0

Total # of neighbors = 7344
Ave neighs/atom = 34
Neighbor list builds = 0
Dangerous builds = 0

# ---------- Average box dimensions ----------

variable sample_interval equal 100
variable nsamples equal ${first_run_step}/${sample_interval}
variable nsamples equal 50000/${sample_interval}
variable nsamples equal 50000/100

variable Lx equal lx
variable Ly equal ly
variable Lz equal lz

variable Etot equal pe
variable Ecoh equal c_eatoms/count(all)
variable Temp equal temp
variable Press equal press
variable Vol equal vol
variable natoms equal count(all)

fix avg all ave/time ${sample_interval} ${nsamples} ${first_run_step} v_Lx v_Ly v_Lz v_Etot v_Ecoh v_Temp v_Press v_Vol v_natoms file ../results/lattice_parameter/box_average_${temperature}.dat
fix avg all ave/time 100 ${nsamples} ${first_run_step} v_Lx v_Ly v_Lz v_Etot v_Ecoh v_Temp v_Press v_Vol v_natoms file ../results/lattice_parameter/box_average_${temperature}.dat
fix avg all ave/time 100 500 ${first_run_step} v_Lx v_Ly v_Lz v_Etot v_Ecoh v_Temp v_Press v_Vol v_natoms file ../results/lattice_parameter/box_average_${temperature}.dat
fix avg all ave/time 100 500 50000 v_Lx v_Ly v_Lz v_Etot v_Ecoh v_Temp v_Press v_Vol v_natoms file ../results/lattice_parameter/box_average_${temperature}.dat
fix avg all ave/time 100 500 50000 v_Lx v_Ly v_Lz v_Etot v_Ecoh v_Temp v_Press v_Vol v_natoms file ../results/lattice_parameter/box_average_200.dat

# ---------- Production ----------
run ${first_run_step}
run 50000
Per MPI rank memory allocation (min/avg/max) = 4.487 | 4.487 | 4.487 Mbytes
   Step          Temp          PotEng         Press          Volume    
     50000   201.76299     -931.77774     -1136.4893      4339.2466    
     50010   178.17441     -931.10041     -992.19439      4338.9374    
     50020   179.13803     -931.10123     -772.77846      4337.6978    
     50030   184.30422     -931.20921     -379.70979      4335.7418    
     50040   181.56092     -931.0906       228.2927       4333.4416    
     50050   187.72637     -931.21365      802.37265      4331.3465    
     50060   190.36745     -931.2342       1194.2538      4329.9874    
     50070   199.56808     -931.43707      1286.948       4329.727     
     50080   211.06245     -931.70755      1046.8478      4330.656     
     50090   196.35029     -931.25894      610.39281      4332.5687    
     50100   186.11251     -930.9401       47.03414       4335.0666    
     50110   208.49695     -931.52646     -578.16209      4337.6257    
     50120   203.92504     -931.36659     -952.94566      4339.6843    
     50130   194.36349     -931.07497     -1123.6568      4340.879     
     50140   222.2601      -931.82877     -1270.4446      4341.023     
     50150   214.42329     -931.60068     -1100.333       4339.9983    
     50160   172.53387     -930.43277     -599.24679      4337.9601    
     50170   180.08734     -930.63149     -172.86919      4335.3373    
     50180   198.57683     -931.12405      291.1733       4332.5409    
     50190   175.30023     -930.45193      1007.382       4330.0283    
     50200   175.83547     -930.43627      1542.0476      4328.4364    
     50210   214.14264     -931.46167      1591.0329      4328.249     
     50220   216.24285     -931.48521      1384.7393      4329.5466    
     50230   199.74986     -931.00485      933.56537      4332.1494    
     50240   214.76965     -931.40535      130.88588      4335.6338    
     50250   219.80303     -931.53376     -733.23598      4339.2776    
     50260   208.05343     -931.20499     -1448.3569      4342.2806    
     50270   209.16768     -931.24067     -1909.7739      4343.9638    
     50280   200.14579     -930.99981     -1919.7127      4343.8934    
     50290   191.03389     -930.75688     -1547.8887      4342.037     
     50300   203.86648     -931.12228     -924.42342      4338.7204    
     50310   196.45725     -930.92331      39.695677      4334.5342    
     50320   183.32313     -930.55929      1088.7731      4330.3616    
     50330   200.90339     -931.04218      1844.8836      4327.1584    
     50340   205.09906     -931.15225      2281.2744      4325.6449    
     50350   201.65671     -931.05485      2218.1439      4326.2319    
     50360   215.37725     -931.4406       1499.6785      4328.8675    
     50370   199.74701     -931.01563      479.90665      4332.9322    
     50380   179.02757     -930.44536     -578.61828      4337.5018    
     50390   195.06032     -930.8869      -1542.9699      4341.5888    
     50400   203.77432     -931.11984     -2107.7419      4344.2972    
     50410   201.28548     -931.04341     -2145.5695      4345.083     
     50420   219.60114     -931.55114     -1820.7007      4343.8713    
     50430   214.49292     -931.41763     -1130.5516      4340.9533    
     50440   204.36492     -931.15386     -223.94974      4336.9544    
     50450   206.81197     -931.24552      688.46235      4332.7065    
     50460   197.22734     -931.00969      1463.5623      4329.0575    
     50470   187.64509     -930.77873      1988.7469      4326.7351    
     50480   200.60705     -931.18279      2108.1569      4326.2338    
     50490   202.80407     -931.3029       1771.1243      4327.6844    
     50500   194.856       -931.15365      1008.7029      4330.799     
     50510   193.03653     -931.18157     -51.541366      4334.8911    
     50520   187.04325     -931.09393     -1092.4843      4338.999     
     50530   182.91035     -931.05355     -1872.4672      4342.1532    
     50540   180.9875      -931.06891     -2200.3931      4343.6128    
     50550   179.57159     -931.09127     -1994.2626      4343.0478    
     50560   187.97816     -931.37966     -1352.3232      4340.6196    
     50570   198.16643     -931.71384     -434.4914       4336.9028    
     50580   197.00151     -931.72819      568.52101      4332.7392    
     50590   201.76156     -931.9046       1380.6338      4329.0484    
     50600   193.76617     -931.72594      1939.5111      4326.5985    
     50610   176.08589     -931.27063      2162.6098      4325.926     
     50620   192.19968     -931.74791      1820.6917      4327.2439    
     50630   203.79361     -932.09843      1068.9497      4330.276     
     50640   185.38176     -931.61235      117.20211      4334.3586    
     50650   178.3184      -931.43139     -992.4583       4338.6092    
     50660   181.25099     -931.51708     -1949.574       4342.0016    
     50670   157.4779      -930.84902     -2339.6978      4343.646     
     50680   154.21935     -930.73769     -2221.3214      4343.1331    
     50690   182.21691     -931.47496     -1623.1836      4340.5404    
     50700   184.23696     -931.47096     -475.05903      4336.4176    
     50710   183.35666     -931.37494      811.49123      4331.7992    
     50720   210.2021      -932.03556      1773.9424      4327.8575    
     50730   214.50562     -932.06731      2359.099       4325.5091    
     50740   191.81318     -931.36579      2457.3578      4325.3204    
     50750   200.5972      -931.54915      1866.4429      4327.3993    
     50760   211.52827     -931.79378      856.14729      4331.2524    
     50770   185.53198     -931.02003     -233.29905      4335.9864    
     50780   172.8117      -930.61769     -1331.2056      4340.5867    
     50790   187.48726     -930.96872     -2189.007       4344.0255    
     50800   201.54876     -931.29998     -2504.4455      4345.4882    
     50810   204.22853     -931.32402     -2218.5427      4344.6421    
     50820   195.82956     -931.05155     -1468.797       4341.7111    
     50830   196.22381     -931.02854     -500.97573      4337.3566    
     50840   203.05605     -931.18483      578.493        4332.47      
     50850   195.84612     -930.95254      1664.2779      4328.0593    
     50860   188.90742     -930.72957      2399.7067      4325.1276    
     50870   205.0346      -931.14969      2510.7902      4324.3671    
     50880   204.97141     -931.12599      2185.1203      4325.9381    
     50890   187.91139     -930.63584      1486.458       4329.5826    
     50900   208.30052     -931.18457      308.68396      4334.67      
     50910   230.19603     -931.77542     -1014.0122      4340.1421    
     50920   208.58521     -931.16819     -2046.1366      4344.7853    
     50930   195.38474     -930.80125     -2742.6651      4347.5958    
     50940   206.69061     -931.11894     -2962.7742      4347.8819    
     50950   201.28655     -930.97834     -2450.0678      4345.4108    
     50960   191.08222     -930.70561     -1311.9612      4340.6166    
     50970   198.54        -930.91737      149.91328      4334.5242    
     50980   202.89919     -931.03575      1623.7461      4328.479     
     50990   207.81267     -931.16851      2733.0826      4323.8444    
     51000   210.46722     -931.24575      3267.2477      4321.6714    
     51010   198.34289     -930.92205      3100.5114      4322.4948    
     51020   198.30099     -930.93912      2119.804       4326.2017    
     51030   206.03015     -931.17176      666.94789      4331.955     
     51040   199.47439     -931.00508     -811.82417      4338.4592    
     51050   189.04369     -930.72513     -2108.6604      4344.3381    
     51060   196.73093     -930.94502     -3037.6963      4348.3519    
     51070   199.34103     -931.02647     -3288.5387      4349.5998    
     51080   200.0098      -931.06102     -2844.6024      4347.7888    
     51090   203.22567     -931.17186     -1791.1582      4343.2856    
     51100   204.52118     -931.23112     -282.27558      4337.0439    
     51110   211.60567     -931.45281      1281.3611      4330.4415    
     51120   213.52312     -931.54061      2521.3174      4324.923     
     51130   194.71187     -931.06479      3254.9551      4321.6616    
     51140   195.52783     -931.14622      3215.1083      4321.3581    
     51150   198.05222     -931.29104      2473.0892      4324.0332    
     51160   176.79047     -930.77678      1313.7014      4329.0701    
     51170   189.16126     -931.19008     -190.80347      4335.4238    
     51180   205.3911      -931.71382     -1686.8726      4341.7224    
     51190   175.43002     -930.94897     -2708.4989      4346.5784    
     51200   176.78746     -931.04265     -3265.9287      4348.9783    
     51210   198.60331     -931.70821     -3201.0545      4348.3554    
     51220   180.74385     -931.27137     -2330.5626      4344.7393    
     51230   177.11879     -931.21755     -976.84644      4338.8872    
     51240   199.97817     -931.88875      592.5492       4332.0367    
     51250   193.68299     -931.7413       2204.4938      4325.653     
     51260   191.43298     -931.70029      3282.0328      4321.2138    
     51270   202.28173     -932.02681      3502.2338      4319.7336    
     51280   183.29439     -931.52856      3019.2057      4321.4812    
     51290   165.3891      -931.05387      1913.1454      4326.0636    
     51300   172.08966     -931.24599      385.56607      4332.508     
     51310   184.37714     -931.57279     -1192.7481      4339.4352    
     51320   191.0638      -931.72852     -2508.6619      4345.3771    
     51330   191.14096     -931.6935      -3321.8227      4349.0747    
     51340   185.37179     -931.49408     -3444.0963      4349.7239    
     51350   187.70479     -931.51699     -2881.0601      4347.155     
     51360   180.84657     -931.27505     -1671.3931      4341.8598    
     51370   181.1426      -931.21621     -74.795084      4334.9353    
     51380   194.53196     -931.49725      1577.9874      4327.8527    
     51390   198.90642     -931.51154      2971.439       4322.1471    
     51400   191.88015     -931.21137      3779.7668      4319.1202    
     51410   197.19597     -931.26557      3686.9785      4319.5397    
     51420   198.80168     -931.22823      2722.6898      4323.3748    
     51430   185.49938     -930.79005      1184.7939      4329.8025    
     51440   187.05357     -930.76847     -616.58264      4337.4419    
     51450   206.2119      -931.23339     -2276.9535      4344.6363    
     51460   207.11828     -931.19983     -3321.7151      4349.8319    
     51470   196.646       -930.86835     -3623.5819      4352.0026    
     51480   217.86949     -931.43319     -3361.2695      4350.7929    
     51490   235.13545     -931.90601     -2444.9886      4346.4194    
     51500   211.02902     -931.24693     -906.68434      4339.721     
     51510   184.24534     -930.51124      819.39654      4332.1013    
     51520   186.57682     -930.57094      2319.3468      4325.1521    
     51530   196.96486     -930.84595      3384.5793      4320.2766    
     51540   197.37346     -930.84581      3836.0619      4318.482     
     51550   194.56994     -930.7633       3478.4581      4320.2123    
     51560   198.61036     -930.87368      2286.7337      4325.1802    
     51570   206.6558      -931.09298      579.43616      4332.3416    
     51580   189.87456     -930.61522     -1118.427       4340.1645    
     51590   192.97615     -930.68035     -2614.8181      4347.0573    
     51600   227.31932     -931.61066     -3640.8414      4351.5954    
     51610   225.37816     -931.54992     -3773.2143      4352.7989    
     51620   207.85736     -931.07779     -3133.4767      4350.4859    
     51630   221.93339     -931.49747     -2076.8782      4345.1972    
     51640   210.15654     -931.20724     -530.25615      4337.9267    
     51650   188.93913     -930.6498       1244.6485      4330.106     
     51660   197.93661     -930.92384      2727.3999      4323.3632    
     51670   195.52778     -930.8801       3676.3539      4319.0827    
     51680   191.4349      -930.79363      3864.8942      4318.1556    
     51690   205.16273     -931.21141      3227.8564      4320.7873    
     51700   189.15724     -930.80753      2030.7742      4326.4514    
     51710   178.61385     -930.54523      315.77372      4334.0665    
     51720   208.8266      -931.40324     -1682.6384      4342.0563    
     51730   208.81435     -931.42039     -3206.7724      4348.5915    
     51740   179.86389     -930.63689     -3886.6461      4352.2244    
     51750   193.73579     -931.04624     -3883.9331      4352.2494    
     51760   221.27714     -931.84754     -3141.4834      4348.6375    
     51770   204.47054     -931.4298      -1579.3424      4342.0798    
     51780   192.03769     -931.13145      321.57476      4334.0017    
     51790   205.49251     -931.5477       2122.8173      4326.1593    
     51800   200.1833      -931.44651      3568.8983      4320.2308    
     51810   181.79222     -930.98543      4226.1993      4317.5465    
     51820   193.853       -931.37842      3799.455       4318.7193    
     51830   201.46013     -931.6594       2592.4689      4323.4167    
     51840   182.49876     -931.20116      916.59734      4330.5739    
     51850   175.18892     -931.05037     -1014.8672      4338.6576    
     51860   180.4333      -931.23244     -2713.1358      4345.8898    
     51870   178.08785     -931.19392     -3763.7142      4350.6746    
     51880   187.05364     -931.46898     -4042.2468      4351.987     
     51890   196.51055     -931.76379     -3428.4187      4349.5391    
     51900   187.57113     -931.5493      -2049.481       4343.881     
     51910   184.6328      -931.49332     -356.57913      4336.2694    
     51920   183.73925     -931.47989      1407.2106      4328.2825    
     51930   178.09174     -931.31929      3005.4209      4321.5628    
     51940   188.88403     -931.60699      3967.778       4317.573     
     51950   195.43975     -931.77702      4068.8124      4317.2095    
     51960   183.48692     -931.43482      3335.185       4320.5982    
     51970   192.03378     -931.65561      1817.2271      4327.0917    
     51980   203.17736     -931.93027     -86.381064      4335.333     
     51990   192.40249     -931.57853     -1914.5916      4343.5829    
     52000   194.51382     -931.57079     -3474.6893      4350.1153    
     52010   192.10507     -931.4271      -4378.7553      4353.4533    
     52020   168.76673     -930.70282     -4239.2988      4352.7379    
     52030   172.41949     -930.72476     -3198.953       4348.0603    
     52040   194.51997     -931.23558     -1467.7316      4340.3797    
     52050   188.23265     -930.94176      745.32897      4331.3188    
     52060   183.03455     -930.67971      2850.4642      4322.9154    
     52070   213.24594     -931.40333      4248.8943      4317.0935    
     52080   214.75212     -931.35002      4843.7827      4315.1629    
     52090   202.04744     -930.94126      4391.0119      4317.6758    
     52100   212.17588     -931.18905      2840.2293      4324.2407    
     52110   224.05027     -931.49249      607.2942       4333.4795    
     52120   205.88792     -930.96283     -1700.1448      4343.3677    
     52130   198.66828     -930.73473     -3690.4436      4351.7489    
     52140   212.00956     -931.08049     -4901.5506      4356.7447    
     52150   211.5682      -931.06086     -4982.8125      4357.1964    
     52160   200.24337     -930.75747     -3995.805       4352.9959    
     52170   207.92744     -930.98858     -2239.7809      4345.0476    
     52180   212.62544     -931.13258      23.207817      4335.0022    
     52190   196.02384     -930.67539      2339.675       4324.9645    
     52200   179.25171     -930.20164      4163.3238      4317.0641    
     52210   186.11596     -930.38043      5082.4488      4312.9664    
     52220   198.40836     -930.71589      5008.4876      4313.526     
     52230   207.2021      -930.96489      3988.1701      4318.6999    
     52240   217.5173      -931.26254      2103.9006      4327.5783    
     52250   222.23684     -931.40329     -385.14759      4338.4486    
     52260   226.54461     -931.53101     -2926.2962      4349.0209    
     52270   214.41537     -931.20996     -4776.2297      4356.9343    
     52280   194.91405     -930.69763     -5587.3828      4360.4239    
     52290   207.62453     -931.0999      -5336.1582      4358.6875    
     52300   215.73204     -931.39741     -3884.5573      4351.9709    
     52310   192.34476     -930.82348     -1483.0628      4341.6453    
     52320   180.11107     -930.53646      1196.1291      4329.9441    
     52330   188.75659     -930.80599      3621.433       4319.3541    
     52340   192.67985     -930.93538      5352.9919      4312.1015    
     52350   200.19318     -931.17581      5919.062       4309.7447    
     52360   197.48483     -931.15212      5240.5283      4312.8051    
     52370   193.52401     -931.10228      3444.3532      4320.6837    
     52380   211.3255      -931.65282      830.58344      4331.7582    
     52390   207.40617     -931.58918     -1897.3903      4343.6555    
     52400   183.82627     -930.96236     -4235.053       4353.835     
     52410   200.76859     -931.45848     -5883.8065      4360.0722    
     52420   196.80191     -931.39343     -6141.5791      4360.8339    
     52430   158.48003     -930.38232     -4847.2483      4355.8826    
     52440   180.6259      -931.04214     -2678.6677      4346.4069    
     52450   214.40625     -932.00911      38.918905      4334.4692    
     52460   193.85079     -931.44865      2953.4057      4322.6267    
     52470   190.36326     -931.34936      5153.7055      4313.5267    
     52480   206.41023     -931.80092      6120.9652      4309.1535    
     52490   190.82977     -931.39488      5821.3625      4310.3854    
     52500   187.58978     -931.3464       4187.9773      4316.9353    
     52510   191.17404     -931.48315      1680.5002      4327.3402    
     52520   182.49466     -931.25842     -1061.9903      4339.3246    
     52530   185.90404     -931.34589     -3623.2387      4350.3376    
     52540   182.85883     -931.24187     -5418.9407      4357.9851    
     52550   166.99164     -930.78278     -5966.9522      4360.5837    
     52560   187.71372     -931.34435     -5326.0656      4357.602     
     52570   204.92619     -931.80112     -3533.9097      4349.6726    
     52580   187.68393     -931.28411     -845.37918      4338.5156    
     52590   189.52674     -931.26801      1979.1183      4326.635     
     52600   204.76786     -931.59049      4321.9807      4316.6336    
     52610   190.71225     -931.09059      5853.4287      4310.6508    
     52620   196.80986     -931.16475      6020.489       4310.0264    
     52630   215.67472     -931.60346      4803.6449      4314.8955    
     52640   199.55457     -931.08229      2694.8605      4324.1725    
     52650   195.31503     -930.89317      2.8963263      4335.9225    
     52660   218.87016     -931.45814     -2779.872       4347.659     
     52670   206.65468     -931.02765     -4879.2505      4356.8092    
     52680   187.30765     -930.42053     -5974.5261      4361.3901    
     52690   205.31714     -930.87318     -5903.9444      4360.3725    
     52700   201.17365     -930.72867     -4394.9528      4353.8781    
     52710   179.65017     -930.10671     -1814.8639      4343.359     
     52720   208.90342     -930.87616      1006.7254      4331.2275    
     52730   227.26512     -931.32364      3687.0109      4320.1266    
     52740   207.59233     -930.72306      5659.3426      4312.4944    
     52750   218.79821     -931.0051       6229.4132      4310.0622    
     52760   229.42016     -931.30308      5381.066       4313.3203    
     52770   196.6164      -930.41711      3433.4913      4321.4929    
     52780   199.6952      -930.52271      644.38355      4332.7812    
     52790   217.53369     -931.01939     -2165.7764      4344.6426    
     52800   211.85031     -930.85584     -4321.799       4354.4755    
     52810   212.04791     -930.86613     -5608.0734      4360.2432    
     52820   209.3973      -930.82104     -5741.3964      4360.754     
     52830   195.267       -930.47662     -4606.2438      4355.9242    
     52840   210.12646     -930.9441      -2541.9979      4346.8532    
     52850   220.09807     -931.27421      107.2893       4335.5217    
     52860   202.79548     -930.8361       2745.9964      4324.4046    
     52870   211.23415     -931.10922      4592.0563      4315.8932    
     52880   211.10111     -931.16108      5498.7646      4311.6559    
     52890   181.61924     -930.41038      5409.3457      4312.4842    
     52900   192.66921     -930.79163      4002.1566      4318.2293    
     52910   207.82059     -931.28793      1695.5316      4327.6043    
     52920   194.66506     -930.98384     -800.21347      4338.5089    
     52930   195.23869     -931.04126     -3091.1446      4348.6221    
     52940   201.96757     -931.26267     -4731.5018      4355.8122    
     52950   191.11495     -931.0002      -5329.792       4358.5639    
     52960   196.37433     -931.19508     -4890.6796      4356.3324    
     52970   203.32833     -931.44582     -3391.1281      4349.5858    
     52980   189.38036     -931.10703     -1008.4907      4339.7886    
     52990   202.05994     -931.4877       1517.0155      4329.1642    
     53000   217.0748      -931.92314      3634.5433      4320.0438    
     53010   193.24304     -931.28005      5000.8244      4314.3476    
     53020   189.55625     -931.2017       5165.277       4313.2566    
     53030   205.58677     -931.68162      4180.5484      4316.8834    
     53040   180.5656      -931.02135      2458.7029      4324.3217    
     53050   161.74168     -930.51303      177.95893      4333.9645    
     53060   187.57363     -931.21759     -2227.7119      4343.7012    
     53070   196.13939     -931.4251      -3961.5313      4351.3317    
     53080   187.1706      -931.1483      -4732.5923      4355.2443    
     53090   192.54561     -931.28041     -4602.033       4354.7238    
     53100   188.88214     -931.16916     -3497.5514      4349.9454    
     53110   190.43337     -931.20223     -1646.2604      4341.9854    
     53120   199.95991     -931.44646      602.50386      4332.6052    
     53130   195.34636     -931.28699      2811.8138      4323.899     
     53140   206.56267     -931.56584      4269.427       4317.8542    
     53150   229.58145     -932.18818      4638.2796      4315.7575    
     53160   201.41183     -931.41226      4137.0963      4317.9296    
     53170   184.71593     -930.9633       2685.0698      4323.8615    
     53180   206.40672     -931.57351      520.12871      4332.1983    
     53190   179.37872     -930.81637     -1538.3127      4340.9761    
     53200   155.86961     -930.14073     -3198.1362      4348.2764    
     53210   198.38038     -931.28719     -4287.058       4352.547     
     53220   202.98726     -931.38184     -4210.6173      4352.8329    
     53230   176.83272     -930.6342      -3144.0724      4349.2283    
     53240   203.2529      -931.34607     -1699.8095      4342.731     
     53250   210.22488     -931.50901      120.50261      4334.747     
     53260   186.56997     -930.81769      2022.7025      4326.9805    
     53270   205.73702     -931.31212      3368.665       4321.1463    
     53280   216.51632     -931.57764      4028.175       4318.4608    
     53290   191.15784     -930.85456      3886.0932      4319.4919    
     53300   209.54072     -931.35621      2693.8297      4324.0495    
     53310   219.96853     -931.63823      976.0837       4331.0485    
     53320   191.30763     -930.83446     -787.16489      4338.911     
     53330   192.63388     -930.85623     -2488.1048      4345.9804    
     53340   204.644       -931.16946     -3637.8397      4350.6971    
     53350   186.62722     -930.65252     -3834.1974      4352.0244    
     53360   198.55737     -930.97262     -3311.0271      4349.7816    
     53370   220.67161     -931.57757     -2153.5978      4344.4969    
     53380   202.37405     -931.06276     -458.09251      4337.2958    
     53390   192.91938     -930.78979      1221.3759      4329.7476    
     53400   193.24227     -930.77927      2630.5464      4323.4065    
     53410   183.39703     -930.47969      3642.6398      4319.5592    
     53420   202.22399     -930.97503      3821.9471      4319.0762    
     53430   220.66857     -931.46158      3141.7714      4322.0906    
     53440   202.24245     -930.92997      1868.4718      4327.97      
     53450   203.75781     -930.94991      87.22367       4335.5146    
     53460   214.24629     -931.20728     -1734.4352      4343.0856    
     53470   196.18431     -930.66571     -3016.4949      4349.0175    
     53480   206.28419     -930.90547     -3705.8086      4352.107     
     53490   234.12034     -931.63916     -3674.1079      4351.7328    
     53500   215.65141     -931.10013     -2709.5722      4347.9787    
     53510   195.88333     -930.53292     -1203.9655      4341.7608    
     53520   218.06156     -931.12323      333.07958      4334.4832    
     53530   217.13731     -931.06542      1857.5517      4327.6025    
     53540   197.34121     -930.48659      3016.378       4322.505     
     53550   200.09199     -930.53714      3432.9408      4320.2123    
     53560   194.59539     -930.36031      3228.1379      4321.0938    
     53570   186.32913     -930.10599      2434.9798      4324.935     
     53580   208.46874     -930.68751      1045.171       4330.9756    
     53590   220.22834     -930.97013     -512.54249      4337.9438    
     53600   212.91105     -930.72345     -1893.3742      4344.4013    
     53610   225.87167     -931.04636     -2954.8481      4349.0566    
     53620   228.64696     -931.10129     -3305.8184      4350.9519    
     53630   215.1256      -930.72463     -2895.353       4349.7801    
     53640   229.50916     -931.14021     -2072.4133      4345.9258    
     53650   241.3934      -931.5078      -880.1915       4340.1935    
     53660   207.7039      -930.62553      615.14975      4333.725     
     53670   193.43386     -930.28021      1854.2148      4327.88      
     53680   206.75739     -930.70386      2627.9777      4323.7899    
     53690   192.44377     -930.36409      3030.0079      4322.166     
     53700   187.75623     -930.29085      2769.2652      4323.3313    
     53710   205.65547     -930.84776      1897.7089      4327.0268    
     53720   206.49531     -930.93362      781.54386      4332.4587    
     53730   211.02199     -931.12203     -569.34562      4338.5729    
     53740   218.17033     -931.38871     -1940.0861      4344.1134    
     53750   197.38715     -930.87973     -2808.2095      4347.8376    
     53760   204.91289     -931.1566      -3122.0381      4348.9347    
     53770   214.70522     -931.50732     -2768.4301      4347.1369    
     53780   178.11943     -930.56405     -1667.8436      4342.814     
     53790   181.45958     -930.70773     -340.19385      4336.983     
     53800   225.04406     -931.96457      916.34422      4330.882     
     53810   200.444       -931.32751      2235.4279      4325.7078    
     53820   182.72377     -930.8709       3041.4451      4322.629     
     53830   220.96931     -931.97171      2927.959       4322.3388    
     53840   203.9245      -931.54578      2350.3024      4324.754     
     53850   167.93597     -930.58444      1362.1824      4329.323     
     53860   189.44415     -931.20532     -108.26158      4335.1022    
     53870   189.81323     -931.22522     -1430.7917      4340.765     
     53880   174.61466     -930.80185     -2327.6013      4345.0884    
     53890   197.53638     -931.43105     -2859.9962      4347.2224    
     53900   205.14442     -931.6354      -2721.299       4346.705     
     53910   190.07082     -931.21357     -1892.3245      4343.6895    
     53920   201.92743     -931.53854     -823.12001      4338.9384    
     53930   202.86411     -931.55622      363.34239      4333.4674    
     53940   183.33056     -931.00125      1523.5051      4328.3849    
     53950   185.7269      -931.04891      2309.1344      4324.7399    
     53960   192.56948     -931.21425      2644.8863      4323.2464    
     53970   184.78324     -930.97086      2531.2001      4324.2026    
     53980   196.79042     -931.2744       1818.3012      4327.4734    
     53990   211.15386     -931.6372       717.72252      4332.4033    
     54000   208.36441     -931.5228      -489.49812      4337.9799    
     54010   201.79731     -931.30434     -1681.5651      4343.0753    
     54020   199.94784     -931.21686     -2609.7624      4346.586     
     54030   194.27701     -931.02408     -2915.5138      4347.6719    
     54040   196.15164     -931.0416      -2548.1199      4346.0599    
     54050   202.98736     -931.19365     -1647.7815      4342.1038    
     54060   195.46519     -930.94087     -366.36738      4336.6614    
     54070   190.34826     -930.7453       968.65311      4330.923     
     54080   196.30545     -930.84295      2075.0407      4326.1178    
     54090   191.60577     -930.63187      2832.0346      4323.2624    
     54100   196.12086     -930.66857      2979.6896      4323.0249    
     54110   222.35551     -931.29519      2416.1437      4325.5192    
     54120   225.67348     -931.28019      1410.2105      4330.2337    
     54130   214.42516     -930.87163      119.07669      4336.2352    
     54140   225.4631      -931.08817     -1345.7523      4342.3149    
     54150   220.28972     -930.86262     -2510.0627      4347.1331    
     54160   204.91339     -930.37239     -3095.5461      4349.613     
     54170   213.22407     -930.55451     -3056.2448      4349.2106    
     54180   221.43949     -930.74637     -2322.8115      4345.9858    
     54190   211.68738     -930.45226     -1017.0673      4340.6434    
     54200   214.34899     -930.50956      441.46183      4334.3955    
     54210   223.07042     -930.74032      1747.0572      4328.5952    
     54220   211.44982     -930.41543      2706.3007      4324.4452    
     54230   208.12178     -930.33067      3042.3981      4322.8028    
     54240   213.69409     -930.50275      2741.3929      4323.9646    
     54250   212.72128     -930.50051      1946.3416      4327.6522    
     54260   221.72054     -930.78084      713.73118      4333.1192    
     54270   221.24594     -930.80073     -655.03279      4339.2339    
     54280   216.67892     -930.70678     -1868.5467      4344.7309    
     54290   219.72645     -930.82557     -2775.5906      4348.4749    
     54300   214.34934     -930.71405     -3134.1577      4349.6316    
     54310   208.79977     -930.60032     -2796.926       4347.883     
     54320   209.18164     -930.65106     -1812.6373      4343.5605    
     54330   208.84922     -930.67699     -400.22071      4337.5947    
     54340   221.10559     -931.04865      1052.8501      4331.2956    
     54350   227.10967     -931.25164      2273.8803      4326.0064    
     54360   201.98426     -930.59453      3087.6275      4322.8465    
     54370   193.62108     -930.40101      3200.2075      4322.5352    
     54380   214.69808     -931.02906      2529.1902      4325.1571    
     54390   210.54201     -930.96139      1362.8976      4330.105     
     54400   204.6054      -930.84196     -76.472017      4336.3018    
     54410   224.47932     -931.44023     -1548.8313      4342.4123    
     54420   214.59688     -931.21994     -2638.0361      4347.0834    
     54430   182.62812     -930.3844      -3202.5448      4349.2953    
     54440   181.39709     -930.3954      -3200.8321      4348.5208    
     54450   195.18221     -930.8205      -2426.1347      4344.7933    
     54460   195.42083     -930.86477     -924.56516      4338.8612    
     54470   194.28439     -930.86122      831.37695      4332.116     
     54480   206.48711     -931.22028      2329.7193      4326.1706    
     54490   226.16434     -931.79374      3228.132       4322.3908    
     54500   220.26855     -931.67605      3451.4132      4321.5964    
     54510   207.40862     -931.37987      2868.6639      4323.971     
     54520   205.60162     -931.39686      1532.7486      4328.9672    
     54530   195.31574     -931.1737      -117.95424      4335.3705    
     54540   182.85085     -930.87599     -1629.3574      4341.6664    
     54550   185.67063     -930.98961     -2735.9293      4346.4489    
     54560   194.70139     -931.2719      -3266.7661      4348.6847    
     54570   192.97397     -931.25683     -3104.372       4347.8866    
     54580   183.9763      -931.03932     -2277.0943      4344.2172    
     54590   168.79909     -930.63843     -912.47104      4338.466     
     54600   178.86555     -930.92057      631.8534       4331.9022    
     54610   201.66992     -931.54129      2070.9969      4325.9588    
     54620   201.83095     -931.5287       3139.2698      4321.9568    
     54630   205.02393     -931.60649      3444.9038      4320.8467    
     54640   208.59899     -931.7042       2947.6545      4322.8987    
     54650   194.58483     -931.31847      1873.037       4327.664     
     54660   199.55025     -931.45692      334.66894      4334.1438    
     54670   205.52773     -931.6163      -1310.666       4340.9247    
     54680   187.86425     -931.11368     -2619.7137      4346.4916    
     54690   191.35099     -931.19573     -3394.8909      4349.6181    
     54700   197.65175     -931.3554      -3407.6534      4349.5913    
     54710   178.092       -930.79565     -2628.4231      4346.4131    
     54720   188.80809     -931.06759     -1424.4889      4340.803     
     54730   203.87938     -931.43958      105.22275      4333.9075    
     54740   185.96655     -930.878        1795.7417      4327.1627    
     54750   191.30182     -930.94754      3063.6469      4322.0984    
     54760   209.04744     -931.34323      3609.1729      4319.8627    
     54770   199.33606     -930.9732       3428.0391      4320.9525    
     54780   198.64731     -930.8591       2475.6118      4325.1869    
     54790   212.29609     -931.13753      954.68538      4331.6927    
     54800   209.9843      -930.97157     -726.7313       4339.081     
     54810   205.57803     -930.75601     -2247.8188      4345.7936    
     54820   215.81035     -930.9575      -3309.3243      4350.413     
     54830   219.17979     -930.98655     -3621.7539      4351.9572    
     54840   220.75676     -930.99135     -3208.358       4350.1314    
     54850   215.64893     -930.83076     -2145.7164      4345.3359    
     54860   210.16855     -930.67002     -604.27467      4338.5796    
     54870   209.21724     -930.63598      1101.8064      4331.3037    
     54880   205.68407     -930.52932      2591.6249      4325.0813    
     54890   207.34537     -930.5706       3517.1402      4321.269     
     54900   214.98916     -930.7888       3630.0454      4320.6953    
     54910   214.85922     -930.80584      2932.2755      4323.4555    
     54920   206.44584     -930.60088      1624.0074      4328.9132    
     54930   209.54317     -930.71566     -84.925629      4335.8607    
     54940   205.50598     -930.62839     -1759.5554      4342.729     
     54950   197.35083     -930.42341     -2942.6661      4347.9733    
     54960   202.62119     -930.59277     -3423.5715      4350.487     
     54970   217.12216     -931.02825     -3172.5272      4349.8186    
     54980   219.74101     -931.14819     -2260.7286      4346.2111    
     54990   215.49269     -931.0865      -949.11223      4340.52      
     55000   221.56378     -931.31718      482.41156      4333.9719    
     55010   214.05533     -931.17492      1904.3935      4327.9095    
     55020   201.31187     -930.88478      2942.6443      4323.6296    
     55030   212.54464     -931.26339      3181.2976      4322.0551    
     55040   207.94603     -931.21012      2731.7379      4323.4098    
     55050   178.57589     -930.4586       1810.357       4327.2879    
     55060   187.18315     -930.74341      462.65323      4332.8284    
     55070   204.12423     -931.24748     -955.36033      4338.7983    
     55080   187.18431     -930.79918     -2070.7889      4343.8935    
     55090   187.71622     -930.82681     -2800.4146      4347.0613    
     55100   202.74473     -931.25467     -2887.6159      4347.6335    
     55110   197.62463     -931.12461     -2241.6552      4345.541     
     55120   198.65384     -931.1647      -1248.4189      4341.3699    
     55130   207.44695     -931.41836     -152.78258      4336.047     
     55140   196.53366     -931.1206       1059.7227      4330.6145    
     55150   205.93447     -931.38432      2101.4012      4326.1837    
     55160   214.57475     -931.631        2777.899       4323.709     
     55170   195.98648     -931.12767      2901.8496      4323.8025    
     55180   207.32593     -931.46063      2161.8323      4326.5461    
     55190   211.51661     -931.59836      910.92932      4331.2797    
     55200   183.10501     -930.82683     -387.94575      4336.8717    
     55210   179.40992     -930.72946     -1694.364       4342.1003    
     55220   194.65324     -931.14855     -2734.3172      4345.7512    
     55230   173.95152     -930.56426     -2958.266       4346.8881    
     55240   177.76437     -930.6567      -2459.8501      4345.2892    
     55250   214.53879     -931.65703     -1473.911       4341.4124    
     55260   207.49675     -931.43859     -76.108189      4336.1963    
     55270   197.82221     -931.14914      1218.5         4330.9181    
     55280   211.20693     -931.49968      2078.4072      4326.7649    
     55290   202.66969     -931.24498      2599.4317      4324.548     
     55300   197.28938     -931.08404      2598.4207      4324.7327    
     55310   212.77814     -931.50693      1889.571       4327.2986    
     55320   200.41968     -931.15963      795.6696       4331.6126    
     55330   177.71725     -930.52121     -389.14447      4336.6753    
     55340   195.81835     -931.00577     -1535.4906      4341.3787    
     55350   200.92235     -931.12012     -2221.5782      4344.6775    
     55360   191.15777     -930.82071     -2372.0231      4345.9253    
     55370   206.48153     -931.21579     -2154.122       4344.9634    
     55380   223.5686      -931.65776     -1475.3423      4342.0099    
     55390   209.06628     -931.22607     -347.01687      4337.7134    
     55400   200.37259     -930.95645      714.75706      4333.0958    
     55410   206.81257     -931.10118      1432.97        4329.1336    
     55420   196.11913     -930.76446      1910.6496      4326.5081    
     55430   185.31774     -930.41855      2091.3012      4325.6586    
     55440   201.76562     -930.81565      1845.7885      4326.7383    
     55450   200.37198     -930.70022      1381.9089      4329.5407    
     55460   197.70872     -930.53974      609.15864      4333.6235    
     55470   219.28645     -931.03731     -432.07387      4338.2674    
     55480   239.31061     -931.48325     -1400.9396      4342.521     
     55490   222.19813     -930.91505     -2041.1563      4345.4898    
     55500   213.11871     -930.594       -2373.6464      4346.5587    
     55510   213.31611     -930.54369     -2177.6707      4345.4318    
     55520   212.67468     -930.48051     -1425.9776      4342.2978    
     55530   224.05999     -930.75944     -368.34395      4337.849     
     55540   226.47549     -930.79912      825.57188      4333.0741    
     55550   214.52544     -930.45223      1838.9821      4329.0714    
     55560   215.9365      -930.48812      2291.327       4326.7557    
     55570   215.19263     -930.47574      2219.8455      4326.5538    
     55580   212.06546     -930.40841      1730.9321      4328.4078    
     55590   219.51875     -930.6452       871.40297      4331.8656    
     55600   215.33466     -930.56951     -116.44843      4336.1444    
     55610   196.27991     -930.08361     -979.78073      4340.339     
     55620   207.07715     -930.42809     -1739.8539      4343.6273    
     55630   219.06931     -930.81639     -2128.7199      4345.311     
     55640   214.30631     -930.75326     -1948.8753      4345.0369    
     55650   225.03012     -931.13646     -1436.4913      4342.9512    
     55660   230.1249      -931.38358     -690.37651      4339.5326    
     55670   218.10161     -931.16556      215.19189      4335.4829    
     55680   207.38038     -930.97885      1004.8564      4331.6313    
     55690   198.83683     -930.83747      1540.4306      4328.7087    
     55700   194.70353     -930.80081      1806.7084      4327.215     
     55710   189.58842     -930.71869      1762.3361      4327.3968    
     55720   191.5382      -930.81696      1342.7689      4329.208     
     55730   203.36718     -931.17941      676.8406       4332.2709    
     55740   206.26174     -931.2888      -75.334209      4335.9769    
     55750   200.99932     -931.16628     -858.49471      4339.6246    
     55760   215.27337     -931.58614     -1610.8954      4342.4764    
     55770   201.55047     -931.23153     -1992.0717      4343.8487    
     55780   174.58055     -930.50365     -1914.9209      4343.3826    
     55790   192.21705     -931.00703     -1464.6368      4341.1395    
     55800   205.99062     -931.39836     -600.89038      4337.5512    
     55810   193.24881     -931.05073      433.65542      4333.4133    
     55820   195.0826      -931.10392      1291.2131      4329.6703    
     55830   201.25626     -931.27504      1889.1862      4327.1219    
     55840   193.95407     -931.07173      2130.5497      4326.3214    
     55850   202.47884     -931.30978      1850.3273      4327.4817    
     55860   204.24773     -931.36175      1187.9789      4330.3588    
     55870   198.9382      -931.21725      265.3527       4334.3467    
     55880   212.16096     -931.5878      -768.72665      4338.5916    
     55890   203.33903     -931.34821     -1540.9858      4342.1519    
     55900   190.82727     -931.00772     -2043.008       4344.2922    
     55910   196.03383     -931.15957     -2255.8238      4344.5313    
     55920   184.46159     -930.84338     -1871.3689      4342.6922    
     55930   183.35423     -930.81158     -990.0103       4339.1277    
     55940   204.33611     -931.38464      56.91504       4334.642     
     55950   195.51505     -931.1236       1136.7668      4330.2148    
     55960   185.72514     -930.83154      1931.6395      4326.8335    
     55970   200.44154     -931.21474      2232.1581      4325.2242    
     55980   193.38487     -930.989        2184.9734      4325.6858    
     55990   194.96749     -931.00111      1694.4556      4328.1692    
     56000   215.06879     -931.52055      769.33381      4332.222     
     56010   208.60313     -931.29846     -253.30849      4337.0117    
     56020   203.36749     -931.1107      -1215.805       4341.5895    
     56030   223.82172     -931.63486     -2046.3319      4345.0463    
     56040   209.78856     -931.20628     -2405.2064      4346.6219    
     56050   194.31807     -930.74699     -2322.7606      4345.9641    
     56060   203.91481     -930.98302     -1833.0586      4343.1438    
     56070   204.24458     -930.95718     -833.29622      4338.6347    
     56080   192.36844     -930.58711      454.85955      4333.3647    
     56090   198.72112     -930.71415      1570.1543      4328.5082    
     56100   206.58014     -930.87343      2316.6139      4325.0963    
     56110   197.40927     -930.55851      2652.7684      4323.826     
     56120   198.77412     -930.53696      2420.0799      4324.9999    
     56130   204.24889     -930.62514      1687.885       4328.4137    
     56140   208.21256     -930.66733      648.0764       4333.4066    
     56150   215.8914      -930.80935     -525.62089      4339.0222    
     56160   235.54987     -931.28547     -1651.2124      4344.1702    
     56170   247.75639     -931.57017     -2505.2023      4347.7995    
     56180   231.70162     -931.10081     -2883.3576      4349.1098    
     56190   209.20977     -930.4782      -2680.146       4347.7423    
     56200   199.23656     -930.21257     -1879.8836      4343.889     
     56210   209.25212     -930.50335     -653.77131      4338.2936    
     56220   212.78582     -930.61464      833.54044      4332.1057    
     56230   205.42307     -930.42588      2207.8075      4326.6949    
     56240   207.45994     -930.50327      3023.0135      4323.3121    
     56250   221.12419     -930.91925      3086.5425      4322.7015    
     56260   208.01249     -930.61045      2578.1608      4324.945     
     56270   198.17738     -930.40211      1508.7816      4329.5746    
     56280   214.49395     -930.92777      33.038719      4335.6102    
     56290   219.47422     -931.15369     -1407.1273      4341.7057    
     56300   201.00227     -930.73697     -2448.0817      4346.5293    
     56310   205.35556     -930.95958     -3037.507       4349.0874    
     56320   211.8018      -931.25399     -3040.7652      4348.8241    
     56330   193.57866     -930.86103     -2379.3871      4345.7394    
     56340   196.22452     -931.03131     -1225.8644      4340.4452    
     56350   208.36562     -931.45271      279.50046      4334.0255    
     56360   193.02367     -931.09067      1854.6169      4327.8802    
     56370   192.27292     -931.11313      2921.8902      4323.4364    
     56380   212.32573     -931.70838      3230.5836      4321.6705    
     56390   208.94538     -931.65643      2888.6849      4322.8823    
     56400   195.72487     -931.32976      1956.216       4326.7636    
     56410   191.88593     -931.25524      553.19183      4332.46      
     56420   177.41922     -930.86959     -949.7978       4338.6927    
     56430   176.22295     -930.83601     -2225.5249      4344.0696    
     56440   189.34561     -931.18962     -2953.5033      4347.4041    
     56450   192.58585     -931.26641     -3012.0485      4348.0072    
     56460   190.6356      -931.20054     -2494.6332      4345.8091    
     56470   190.16938     -931.17388     -1474.9292      4341.2947    
     56480   191.08692     -931.17821     -91.6862        4335.421     
     56490   201.03398     -931.42446      1336.8059      4329.4683    
     56500   205.02727     -931.50112      2501.1636      4324.7538    
     56510   200.51246     -931.34495      3134.196       4322.3443    
     56520   209.84973     -931.58101      3024.5401      4322.8128    
     56530   207.42448     -931.49823      2263.234       4326.0713    
     56540   193.65237     -931.10385      1016.5677      4331.4308    
     56550   199.34217     -931.2448      -529.597        4337.7435    
     56560   200.65594     -931.2564      -1961.7354      4343.59      
     56570   188.19304     -930.8822      -2941.506       4347.6391    
     56580   191.49016     -930.9453      -3344.734       4348.9602    
     56590   186.45104     -930.77535     -2956.1609      4347.1836    
     56600   178.19356     -930.51151     -1864.5895      4342.6694    
     56610   198.99166     -931.04074     -424.37016      4336.4242    
     56620   209.76838     -931.27512      1177.9004      4329.7975    
     56630   197.7288      -930.87217      2664.9627      4324.275     
     56640   209.44108     -931.1308       3539.3704      4321.2021    
     56650   218.50233     -931.32136      3621.0091      4321.3826    
     56660   219.51682     -931.30369      2805.0303      4324.8894    
     56670   226.03585     -931.45141      1201.3263      4330.9795    
     56680   213.33418     -931.07241     -620.18147      4338.2077    
     56690   190.92841     -930.42481     -2191.9525      4344.8995    
     56700   197.7528      -930.58599     -3346.4219      4349.5706    
     56710   201.52721     -930.66247     -3710.8722      4351.1481    
     56720   200.43438     -930.60997     -3173.0162      4349.287     
     56730   212.32234     -930.92135     -1965.3154      4344.4772    
     56740   211.58583     -930.88117     -337.83574      4337.85      
     56750   210.63009     -930.83299      1272.2518      4330.9106    
     56760   219.1191      -931.04783      2503.515       4325.1425    
     56770   208.61685     -930.74289      3284.2305      4321.6918    
     56780   199.3779      -930.48321      3405.7121      4321.2667    
     56790   212.79539     -930.86107      2716.7921      4323.9694    
     56800   214.49744     -930.92199      1489.113       4329.1888    
     56810   195.99681     -930.42561      45.267892      4335.8128    
     56820   207.50397     -930.76185     -1528.2824      4342.4909    
     56830   226.7317      -931.32137     -2800.7546      4347.7705    
     56840   212.72373     -930.98082     -3325.9525      4350.4757    
     56850   201.46903     -930.73575     -3188.0389      4350.0906    
     56860   218.17207     -931.28971     -2572.1912      4346.7251    
     56870   203.2113      -930.98084     -1351.6462      4340.982     
     56880   181.44039     -930.47179      239.54743      4333.9999    
     56890   195.76455     -930.95093      1777.4359      4327.2463    
     56900   209.96455     -931.42657      2983.925       4322.1406    
     56910   197.47732     -931.16062      3607.9657      4319.787     
     56920   199.6434      -931.30049      3421.715       4320.746     
     56930   206.79841     -931.58119      2510.6542      4324.859     
     56940   201.12389     -931.50129      989.1396       4331.2943    
     56950   185.75192     -931.13574     -859.87411      4338.6568    
     56960   170.99512     -930.76267     -2517.4895      4345.2483    
     56970   179.18284     -931.00977     -3600.0745      4349.5228    
     56980   194.58539     -931.45405     -3839.9709      4350.4636    
     56990   187.13657     -931.26522     -3093.8015      4347.8512    
     57000   184.63556     -931.20947     -1665.188       4342.3694    
     57010   200.2868      -931.64743      22.151403      4335.3422    
     57020   205.44406     -931.78536      1701.4457      4328.3455    
     57030   200.16767     -931.63112      3004.31        4322.9251    
     57040   201.38117     -931.66145      3540.0838      4320.2605    
     57050   190.32141     -931.35629      3315.9444      4320.852     
     57060   185.42843     -931.22353      2385.8835      4324.4975    
     57070   190.2423      -931.35291      919.92019      4330.3508    
     57080   187.93977     -931.27253     -685.85748      4337.0778    
     57090   178.88165     -930.99135     -2047.567       4343.2006    
     57100   181.92939     -931.035       -3007.2837      4347.4364    
     57110   186.67973     -931.11675     -3324.3134      4348.8877    
     57120   193.04812     -931.23875     -2841.4066      4347.2613    
     57130   203.37619     -931.46486     -1715.486       4343.0022    
     57140   210.78354     -931.60433     -293.08447      4337.1522    
     57150   204.34169     -931.35746      1098.0672      4331.031     
     57160   188.41325     -930.84862      2187.1105      4325.9246    
     57170   193.62035     -930.92619      2799.0679      4322.8346    
     57180   200.36939     -931.04533      2968.7041      4322.3353    
     57190   195.79044     -930.85541      2579.3341      4324.5779    
     57200   215.56114     -931.34653      1498.4736      4329.1925    
     57210   226.5259      -931.59684      126.02303      4335.2106    
     57220   202.45711     -930.88615     -1167.8224      4341.3781    
     57230   200.24443     -930.78925     -2375.4176      4346.4686    
     57240   209.18564     -931.00547     -3208.804       4349.3557    
     57250   193.96998     -930.55997     -3309.4997      4349.2719    
     57260   193.9978      -930.54535     -2659.8879      4346.1172    
     57270   207.93414     -930.91751     -1291.2428      4340.5082    
     57280   198.83627     -930.64651      532.44168      4333.726     
     57290   211.92761     -930.98922      2059.419       4327.4255    
     57300   230.67844     -931.49555      3002.5754      4323.0154    
     57310   210.16604     -930.92851      3405.9353      4321.3808    
     57320   200.36329     -930.6717       3022.1715      4322.875     
     57330   203.20377     -930.77033      1932.0816      4327.1535    
     57340   194.26771     -930.53794      487.17795      4333.2368    
     57350   205.28981     -930.85265     -1103.6028      4339.7891    
     57360   215.23778     -931.13598     -2412.8642      4345.3447    
     57370   195.69045     -930.60308     -3018.8503      4348.6946    
     57380   203.94262     -930.84632     -3035.0233      4349.2412    
     57390   222.29631     -931.37891     -2496.8387      4346.9617    
     57400   211.75474     -931.11744     -1381.4626      4342.3718    
     57410   220.97971     -931.40917     -39.059283      4336.4987    
     57420   228.21068     -931.6521       1280.976       4330.5924    
     57430   199.26005     -930.89132      2339.7205      4325.8749    
     57440   186.49846     -930.57147      2732.7596      4323.2999    
     57450   192.58208     -930.77002      2499.9867      4323.2358    
     57460   167.80215     -930.1008       2054.5132      4325.5068    
     57470   177.69717     -930.3815       1237.7315      4329.686     
     57480   218.68605     -931.51644      39.98791       4335.0136    
     57490   211.69939     -931.31981     -1095.361       4340.4081    
     57500   196.14809     -930.88839     -2007.0449      4344.8074    
     57510   213.30929     -931.36737     -2626.5764      4347.3466    
     57520   221.76365     -931.61407     -2720.1039      4347.4519    
     57530   205.91394     -931.19724     -2184.1448      4345.0386    
     57540   196.35127     -930.95606     -1176.1612      4340.6       
     57550   207.15731     -931.27589      74.415915      4335.0717    
     57560   212.06354     -931.43033      1360.8591      4329.6183    
     57570   194.28706     -930.95324      2384.4569      4325.4241    
     57580   194.72215     -930.98         2765.8979      4323.4139    
     57590   205.75508     -931.30359      2483.0551      4323.9445    
     57600   185.40597     -930.75631      1797.3342      4326.7803    
     57610   172.95996     -930.41985      792.41729      4331.2933    
     57620   192.74733     -930.96581     -416.39854      4336.5555    
     57630   199.45046     -931.13808     -1507.2639      4341.4593    
     57640   205.32623     -931.28631     -2289.0509      4344.9843    
     57650   211.26488     -931.4418      -2556.5281      4346.4001    
     57660   199.12538     -931.10249     -2250.4587      4345.4515    
     57670   202.55444     -931.19988     -1570.8298      4342.4052    
     57680   205.09964     -931.27352     -573.85591      4337.9002    
     57690   189.57123     -930.8419       621.51114      4332.8695    
     57700   203.8709      -931.23372      1651.9516      4328.4076    
     57710   221.90099     -931.73163      2310.6891      4325.4647    
     57720   197.66546     -931.06517      2523.9335      4324.6557    
     57730   192.49877     -930.93382      2084.3705      4326.1643    
     57740   199.90124     -931.15106      1221.7988      4329.6083    
     57750   194.47197     -931.00886      203.87327      4334.2102    
     57760   202.42563     -931.2358      -901.0543       4339.021     
     57770   195.49496     -931.04766     -1823.9833      4343.0211    
     57780   180.66901     -930.63741     -2368.2975      4345.3473    
     57790   199.91218     -931.1711      -2475.9429      4345.4778    
     57800   203.85993     -931.27998     -1970.4671      4343.3199    
     57810   185.88633     -930.77925     -972.81909      4339.3384    
     57820   199.92835     -931.16094      171.88308      4334.4444    
     57830   209.04561     -931.39782      1327.682       4329.7079    
     57840   197.30644     -931.05353      2227.356       4326.1942    
     57850   209.47468     -931.37512      2503.2416      4324.7154    
     57860   208.35863     -931.33182      2247.8697      4325.545     
     57870   190.03769     -930.81432      1590.3608      4328.465     
     57880   202.06733     -931.13711      547.82011      4332.8674    
     57890   203.87441     -931.16919     -522.21043      4337.8135    
     57900   202.78335     -931.11846     -1475.9274      4342.3062    
     57910   214.58423     -931.42686     -2205.0842      4345.4468    
     57920   202.45344     -931.0763      -2476.4858      4346.5559    
     57930   196.58389     -930.90517     -2311.0526      4345.3633    
     57940   210.71627     -931.29255     -1744.9729      4342.0131    
     57950   185.60135     -930.5891      -613.33511      4337.0555    
     57960   174.15481     -930.2563       722.52087      4331.5249    
     57970   203.63758     -931.0457       1870.9579      4326.6451    
     57980   197.46267     -930.83668      2748.7343      4323.4918    
     57990   192.4251      -930.6616       3018.1049      4322.8624    
     58000   227.73299     -931.60864      2491.3207      4325.0016    
     58010   216.45367     -931.26882      1544.5513      4329.4692    
     58020   201.28213     -930.82986      219.74971      4335.3934    
     58030   227.26938     -931.53385     -1322.3103      4341.5469    
     58040   216.46299     -931.22172     -2453.1089      4346.5273    
     58050   196.14388     -930.65543     -3047.8994      4349.2584    
     58060   214.95431     -931.1846      -3170.4141      4349.1504    
     58070   210.20678     -931.07097     -2536.3029      4346.1013    
     58080   185.115       -930.39603     -1264.7728      4340.6948    
     58090   194.13687     -930.66127      198.42655      4334.0919    
     58100   204.5353      -930.95664      1697.5744      4327.6625    
     58110   200.46843     -930.84851      2937.7963      4322.7913    
     58120   203.46871     -930.94214      3489.1752      4320.6056    
     58130   201.85021     -930.91664      3237.1242      4321.6223    
     58140   197.36506     -930.81831      2267.4299      4325.6311    
     58150   198.35327     -930.87164      819.20702      4331.7649    
     58160   206.40537     -931.11734     -775.22629      4338.7065    
     58170   217.98357     -931.46311     -2202.4509      4344.9802    
     58180   212.03908     -931.33427     -3125.7571      4349.2514    
     58190   192.24886     -930.83062     -3317.5885      4350.6453    
     58200   202.33042     -931.16482     -2938.2223      4348.9444    
     58210   219.36937     -931.70719     -2083.0744      4344.49      
     58220   201.55736     -931.29205     -735.19163      4338.0909    
     58230   179.50561     -930.74833      857.07968      4330.9987    
     58240   184.55652     -930.94326      2272.6876      4324.6762    
     58250   189.7483      -931.13538      3262.8285      4320.433     
     58260   187.20668     -931.11183      3621.6065      4319.1834    
     58270   188.14847     -931.18517      3198.7838      4321.2645    
     58280   198.3256      -931.51512      2015.9927      4326.305     
     58290   200.67944     -931.6246       393.09387      4333.2484    
     58300   190.0882      -931.36557     -1276.6779      4340.6154    
     58310   187.22829     -931.3095      -2704.7618      4346.8506    
     58320   200.0599      -931.68625     -3634.5347      4350.6046    
     58330   196.28376     -931.60759     -3777.736       4350.9966    
     58340   179.09893     -931.1598      -3108.4829      4347.8717    
     58350   174.68517     -931.05968     -1803.7232      4341.8384    
     58360   175.91841     -931.09981     -44.649439      4334.1148    
     58370   180.91162     -931.22302      1871.6727      4326.3371    
     58380   198.29001     -931.67425      3456.5201      4320.2645    
     58390   203.14445     -931.77381      4291.7128      4317.3501    
     58400   207.98122     -931.88148      4077.1484      4318.3599    
     58410   205.0844      -931.78211      2921.6697      4323.1292    
     58420   185.75244     -931.22369      1116.7571      4330.6333    
     58430   182.19357     -931.0855      -1050.256       4339.2231    
     58440   193.98722     -931.34585     -3027.1524      4346.9028    
     58450   184.5         -930.99579     -4159.6016      4351.8374    
     58460   176.37602     -930.6771      -4272.5965      4352.9338    
     58470   191.45322     -930.98964     -3460.7253      4350.0513    
     58480   207.33944     -931.30639     -1935.8636      4343.9315    
     58490   210.28599     -931.26066     -69.065277      4335.9858    
     58500   203.8573      -930.96551      1791.0865      4327.9492    
     58510   197.82044     -930.69781      3330.5169      4321.5459    
     58520   211.68601     -931.00166      4122.9742      4318.1826    
     58530   215.87212     -931.06144      4008.5762      4318.5967    
     58540   199.72451     -930.58234      3083.3765      4322.7141    
     58550   215.42929     -930.99989      1415.065       4329.7022    
     58560   227.77662     -931.32718     -511.11669      4338.063     
     58570   209.38168     -930.80594     -2238.6196      4346.0275    
     58580   209.39438     -930.80006     -3630.6258      4351.9563    
     58590   220.2673      -931.10753     -4367.5777      4354.5275    
     58600   197.87997     -930.50691     -4020.6664      4353.0522    
     58610   194.65183     -930.44488     -2811.1985      4347.8194    
     58620   212.11049     -930.95599     -1085.6175      4339.9433    
     58630   197.22039     -930.56209      928.51131      4331.0404    
     58640   181.23751     -930.12381      2810.9164      4322.9735    
     58650   210.04999     -930.92303      4140.2742      4317.4712    
     58660   227.34177     -931.41554      4757.3338      4315.7691    
     58670   216.64081     -931.15605      4344.2427      4318.4355    
     58680   224.35881     -931.42977      2677.2673      4325.096     
     58690   215.27562     -931.24496      377.55691      4334.2823    
     58700   189.77035     -930.59293     -1902.5805      4343.9051    
     58710   188.82244     -930.60602     -3840.5893      4351.8273    
     58720   201.4739      -930.99766     -5017.2805      4356.2135    
     58730   186.67484     -930.63518     -4932.8898      4355.9553    
     58740   196.31918     -930.95814     -3738.9709      4351.0922    
     58750   217.61775     -931.6095      -1709.5481      4342.7309    
     58760   210.29389     -931.46196      744.74991      4332.766     
     58770   205.03492     -931.3621       2916.7327      4323.4548    
     58780   203.63201     -931.36707      4366.2779      4316.7967    
     58790   190.66771     -931.05464      4940.1021      4314.1351    
     58800   187.5438      -931.02095      4432.9688      4315.9973    
     58810   186.74581     -931.05175      2948.3974      4321.9482    
     58820   181.59544     -930.94851      868.42297      4330.6664    
     58830   188.15217     -931.14921     -1375.1287      4340.2576    
     58840   197.60604     -931.41447     -3292.4219      4348.6442    
     58850   186.91295     -931.1149      -4422.7682      4354.0267    
     58860   187.40762     -931.12938     -4661.2006      4355.3064    
     58870   203.53727     -931.58542     -3959.627       4352.2355    
     58880   199.83921     -931.49487     -2304.3794      4345.4744    
     58890   196.93318     -931.41992     -175.72582      4336.5535    
     58900   211.79799     -931.82805      1830.0818      4327.4358    
     58910   199.719       -931.48396      3503.0753      4319.9922    
     58920   170.93011     -930.67475      4537.4709      4315.7615    
     58930   187.09986     -931.11494      4473.4499      4315.672     
     58940   211.62025     -931.78846      3448.5478      4319.6956    
     58950   189.07007     -931.15525      1906.2467      4326.9456    
     58960   184.73407     -931.01757     -140.49715      4336.0012    
     58970   207.77426     -931.61668     -2356.6426      4344.9749    
     58980   196.61321     -931.25019     -4010.4808      4351.823     
     58990   173.81846     -930.55848     -4745.9071      4354.9762    
     59000   179.59195     -930.65193     -4475.2514      4353.7125    
     59010   182.27275     -930.63493     -3138.0316      4348.2808    
     59020   199.29567     -930.98374     -1083.3709      4339.919     
     59030   230.46683     -931.68516      1235.079       4330.5379    
     59040   220.41383     -931.24128      3399.7285      4322.2918    
     59050   216.40834     -931.00234      4669.607       4317.1423    
     59060   237.66313     -931.50197      4758.1681      4316.2533    
     59070   223.05802     -931.04856      3941.9427      4319.7494    
     59080   201.93972     -930.44469      2252.2342      4326.899     
     59090   216.56026     -930.83681     -126.95253      4336.1609    
     59100   208.18673     -930.58498     -2352.2805      4345.3836    
     59110   187.04258     -929.9766      -3939.3533      4352.4896    
     59120   199.28528     -930.29831     -4767.0666      4355.9522    
     59130   211.66716     -930.63504     -4567.2852      4354.9812    
     59140   211.74253     -930.64586     -3322.6654      4349.7524    
     59150   208.12823     -930.56028     -1293.1065      4341.4251    
     59160   208.38097     -930.57468      1084.2899      4331.8917    
     59170   230.05163     -931.18087      3109.7643      4323.3348    
     59180   228.95356     -931.16955      4376.4688      4317.6189    
     59190   207.68138     -930.61896      4709.2314      4315.9118    
     59200   213.98463     -930.8522       4019.62        4318.5262    
     59210   219.23218     -931.07278      2508.383       4324.8609    
     59220   193.82372     -930.4395       529.39414      4333.5605    
     59230   196.03964     -930.55538     -1613.8791      4342.8048    
     59240   225.62946     -931.42783     -3431.0436      4350.6064    
     59250   220.92743     -931.36147     -4437.6579      4355.2626    
     59260   202.49808     -930.92586     -4583.1752      4355.7914    
     59270   194.48834     -930.78407     -3873.4744      4352.0344    
     59280   186.81839     -930.64375     -2261.9455      4344.6672    
     59290   192.95841     -930.86808     -46.728909      4335.1974    
     59300   207.52079     -931.30859      2238.9877      4325.6773    
     59310   204.37447     -931.24808      4060.6869      4318.2093    
     59320   197.34365     -931.08053      4939.9969      4314.4519    
     59330   194.75802     -931.04408      4691.7192      4315.2129    
     59340   191.78103     -931.00033      3427.5352      4320.29      
     59350   198.83464     -931.22995      1430.627       4328.5549    
     59360   195.5434      -931.15859     -775.28179      4338.2043    
     59370   184.22166     -930.84636     -2743.3866      4347.2019    
     59380   199.22718     -931.2556      -4194.079       4353.6895    
     59390   213.17724     -931.64158     -4754.2023      4356.2956    
     59400   208.16403     -931.51842     -4306.3018      4354.474     
     59410   207.34721     -931.52473     -3041.4966      4348.6246    
     59420   205.75987     -931.51191     -1145.272       4339.9364    
     59430   182.87129     -930.89419      1116.6407      4330.1907    
     59440   181.49884     -930.85428      3158.6984      4321.4688    
     59450   197.40946     -931.28484      4512.4717      4315.6402    
     59460   189.56619     -931.05984      4928.1204      4313.9458    
     59470   187.23257     -930.99649      4198.1587      4316.7623    
     59480   199.03486     -931.3266       2536.7151      4323.4506    
     59490   190.29167     -931.07681      470.39284      4332.5302    
     59500   180.47124     -930.78062     -1651.3584      4342.1031    
     59510   193.35602     -931.09678     -3490.4494      4350.1886    
     59520   206.69496     -931.41802     -4580.1419      4355.0616    
     59530   204.70288     -931.32273     -4628.6041      4355.6859    
     59540   198.99298     -931.13611     -3689.6627      4351.9952    
     59550   206.87528     -931.32762     -2061.259       4344.8552    
     59560   217.51285     -931.58647     -21.067249      4335.7944    
     59570   210.94807     -931.35856      2109.3939      4326.7191    
     59580   203.42411     -931.09923      3795.4233      4319.5846    
     59590   208.90318     -931.20228      4545.5757      4315.919     
     59600   193.73158     -930.73729      4353.5593      4316.4243    
     59610   179.97489     -930.31251      3260.3266      4320.9369    
     59620   191.21566     -930.56106      1428.1958      4328.471     
     59630   200.40239     -930.71557     -632.75123      4337.3726    
     59640   203.35528     -930.66743     -2396.9409      4345.7498    
     59650   216.79837     -930.89612     -3587.701       4351.9439    
     59660   224.65305     -930.97525     -4071.8199      4354.8164    
     59670   231.06461     -931.04357     -3883.373       4353.8855    
     59680   230.76491     -930.96006     -2956.6503      4349.3284    
     59690   213.48379     -930.43341     -1319.1478      4342.0261    
     59700   210.69075     -930.3196       610.43941      4333.4982    
     59710   221.04268     -930.57239      2413.2045      4325.5319    
     59720   218.11389     -930.46592      3789.8269      4319.7917    
     59730   203.89074     -930.06116      4446.7195      4317.5374    
     59740   217.82413     -930.45507      4083.1309      4319.3594    
     59750   239.82734     -931.09209      2761.525       4324.9425    
     59760   234.3926      -930.9867       811.87803      4333.1012    
     59770   209.37541     -930.34016     -1325.4746      4342.0568    
     59780   209.20741     -930.37618     -3216.4219      4349.8246    
     59790   221.99716     -930.77766     -4357.4017      4354.6374    
     59800   210.60211     -930.5231      -4463.4025      4355.4131    
     59810   198.35798     -930.25148     -3661.9536      4352.0259    
     59820   215.85464     -930.80869     -2204.5459      4345.2139    
     59830   219.51619     -930.98139     -184.99562      4336.3614    
     59840   202.94044     -930.57965      2014.2949      4327.3499    
     59850   205.86272     -930.70564      3743.0655      4320.1896    
     59860   221.48659     -931.18888      4560.2539      4316.4549    
     59870   212.85252     -931.0123       4406.1826      4316.904     
     59880   198.12775     -930.67059      3309.1524      4321.4061    
     59890   201.55383     -930.82514      1478.9175      4328.976     
     59900   207.22358     -931.02912     -628.0486       4337.9554    
     59910   200.82705     -930.88339     -2548.1772      4346.403     
     59920   202.79102     -930.96165     -3914.6468      4352.5189    
     59930   215.71241     -931.34983     -4412.2013      4355.0125    
     59940   220.92514     -931.54127     -3976.4909      4353.3989    
     59950   205.35008     -931.16634     -2767.8635      4348.0749    
     59960   194.76802     -930.92475     -1103.1554      4340.1653    
     59970   193.55523     -930.9282       775.53551      4331.2329    
     59980   188.08471     -930.79658      2616.7303      4323.0288    
     59990   183.38982     -930.67383      4026.3556      4317.2418    
     60000   193.34835     -930.95684      4571.1806      4315.1451    
     60010   200.18982     -931.16057      4138.3033      4317.2411    
     60020   194.95515     -931.03452      2873.7677      4323.1547    
     60030   199.87591     -931.18597      968.42689      4331.7434    
     60040   213.58453     -931.57228     -1259.6374      4341.2595    
     60050   201.61924     -931.23839     -3212.1486      4349.6527    
     60060   201.37056     -931.23113     -4512.3657      4355.0843    
     60070   210.58032     -931.49836     -4849.3514      4356.3237    
     60080   202.15716     -931.2933      -4101.0786      4353.0477    
     60090   185.50732     -930.86398     -2480.2004      4345.953     
     60100   193.93502     -931.12112     -445.41752      4336.5478    
     60110   195.62017     -931.17501      1774.8371      4326.7477    
     60120   185.79912     -930.89561      3806.4165      4318.6075    
     60130   192.16538     -931.06201      5009.0925      4313.9628    
     60140   202.11046     -931.33639      5039.4003      4313.8984    
     60150   201.70932     -931.33601      3971.1204      4318.4572    
     60160   202.38735     -931.3695       2003.1158      4326.6796    
     60170   200.73781     -931.32918     -434.7276       4336.7805    
     60180   185.48458     -930.8957      -2731.9851      4346.5226    
     60190   170.63305     -930.45851     -4382.8123      4353.7627    
     60200   192.83962     -931.04364     -5117.416       4356.9311    
     60210   214.30264     -931.60788     -4657.7616      4355.3401    
     60220   211.02802     -931.49137     -3157.1897      4349.4157    
     60230   210.35905     -931.44584     -1103.0295      4340.5555    
     60240   205.72166     -931.2777       1132.5306      4330.6876    
     60250   188.33484     -930.74118      3166.0272      4321.8895    
     60260   195.41288     -930.87419      4486.0676      4316.0112    
     60270   206.59479     -931.11742      4896.8642      4314.2556    
     60280   193.4688      -930.69327      4336.9609      4316.9973    
     60290   208.35428     -931.0505       2747.95        4323.7171    
     60300   218.42101     -931.26256      643.45358      4332.9931    
     60310   201.63875     -930.72373     -1514.2357      4342.9002    
     60320   221.18926     -931.18941     -3575.2819      4351.4051    
     60330   228.35714     -931.31625     -4898.9885      4356.5949    
     60340   190.96802     -930.23285     -5022.4955      4357.2362    
     60350   187.42196     -930.10803     -4131.618       4353.1904    
     60360   203.01196     -930.51158     -2361.4815      4345.31      
     60370   196.4833      -930.28908      25.642227      4335.2759    
     60380   213.6154      -930.71046      2358.2547      4325.2943    
     60390   222.49748     -930.89722      4282.6499      4317.5232    
     60400   210.68659     -930.52492      5419.3225      4313.7118    
     60410   236.49632     -931.22472      5225.1244      4314.8531    
     60420   242.37774     -931.40336      3857.9389      4320.782     
     60430   219.805       -930.81392      1654.9426      4330.2665    
     60440   241.48008     -931.46033     -1117.3302      4341.2724    
     60450   227.77958     -931.1347      -3573.8787      4351.2633    
     60460   167.24124     -929.50217     -5106.7449      4357.9481    
     60470   175.8609      -929.78412     -5738.96        4359.8466    
     60480   214.48809     -930.91742     -5120.4499      4356.3913    
     60490   199.11102     -930.56336     -3032.2359      4348.2195    
     60500   196.70864     -930.55753     -306.92757      4337.2754    
     60510   222.14498     -931.31264      2254.2006      4326.0896    
     60520   216.81652     -931.21275      4350.2188      4317.0424    
     60530   202.85907     -930.88041      5524.2809      4312.0244    
     60540   199.31676     -930.84999      5516.1329      4312.0748    
     60550   200.42789     -930.95991      4369.5411      4317.1735    
     60560   204.52463     -931.15217      2245.4536      4326.267     
     60570   206.38544     -931.26758     -393.46872      4337.4153    
     60580   206.66485     -931.31792     -2881.9382      4348.1941    
     60590   215.12554     -931.58663     -4773.5118      4356.2755    
     60600   206.87985     -931.39784     -5678.0507      4359.8876    
     60610   187.96471     -930.9206      -5365.0662      4358.1968    
     60620   187.67282     -930.96081     -3915.3248      4351.5251    
     60630   191.68437     -931.10875     -1573.1891      4341.2752    
     60640   184.53869     -930.92121      1223.5633      4329.6676    
     60650   189.10838     -931.03434      3702.8243      4319.2773    
     60660   195.81856     -931.19762      5272.4042      4312.3496    
     60670   197.78547     -931.24         5707.6567      4310.2817    
     60680   188.28306     -930.97925      5066.0034      4313.4464    
     60690   196.25887     -931.21107      3308.9564      4321.2219    
     60700   203.72745     -931.4204       802.95624      4331.9982    
     60710   197.28735     -931.22715     -1839.4706      4343.4763    
     60720   201.10055     -931.30491     -4110.5313      4353.1993    
     60730   211.61439     -931.5713      -5500.5121      4359.0525    
     60740   196.49246     -931.14434     -5631.8956      4359.7597    
     60750   184.22625     -930.81253     -4631.1697      4355.2201    
     60760   198.46717     -931.21781     -2701.7052      4346.4236    
     60770   194.86512     -931.11271     -15.360376      4335.2438    
     60780   192.21228     -931.0128       2707.8763      4324.1814    
     60790   213.90438     -931.57681      4667.8777      4315.7081    
     60800   210.2244      -931.44613      5570.2321      4311.5805    
     60810   187.29791     -930.80131      5289.5327      4312.5703    
     60820   201.01317     -931.18585      3802.3085      4318.367     
     60830   196.37909     -931.05596      1660.2681      4327.6129    
     60840   179.46582     -930.56936     -732.35006      4338.3268    
     60850   197.13129     -931.02045     -3061.2745      4348.2766    
     60860   202.72396     -931.12223     -4685.8037      4355.3176    
     60870   186.58725     -930.62635     -5214.4503      4357.9574    
     60880   205.55622     -931.11456     -4705.8766      4355.7244    
     60890   218.38583     -931.43331     -3153.2555      4349.1648    
     60900   204.3846      -931.00568     -891.81973      4339.7855    
     60910   214.77187     -931.24463      1419.8909      4329.7042    
     60920   215.55343     -931.20494      3484.9783      4321.0731    
     60930   203.31121     -930.80709      4853.513       4315.7488    
     60940   216.86738     -931.13759      4983.1542      4314.8986    
     60950   216.02649     -931.08139      3977.3172      4318.5965    
     60960   198.56675     -930.57176      2205.3995      4325.8968    
     60970   203.46128     -930.67373     -1.37459        4335.1472    
     60980   203.77645     -930.62905     -2096.7903      4344.3137    
     60990   196.49605     -930.36183     -3661.716       4351.4574    
     61000   208.93145     -930.63759     -4529.8258      4355.1251    
     61010   210.91206     -930.62538     -4416.2329      4354.5573    
     61020   209.01805     -930.51348     -3291.0641      4349.921     
     61030   219.79921     -930.7517      -1452.8174      4342.3197    
     61040   216.99771     -930.6048       707.29722      4333.5048    
     61050   215.90497     -930.50154      2675.2708      4325.4787    
     61060   238.62277     -931.06246      3947.0939      4320.014     
     61070   237.31458     -930.97781      4370.4138      4318.2342    
     61080   223.15954     -930.56953      3833.4321      4320.465     
     61090   222.30503     -930.55195      2382.4417      4326.1615    
     61100   222.94942     -930.58607      422.40676      4333.9707    
     61110   209.09365     -930.22091     -1455.4614      4342.0912    
     61120   204.37468     -930.11073     -2933.6644      4348.7797    
     61130   220.45312     -930.58883     -3822.42        4352.6713    
     61140   229.0749      -930.88822     -3919.1043      4352.9772    
     61150   204.86218     -930.30271     -3164.1089      4349.6635    
     61160   190.91189     -930.00557     -1789.8131      4343.4835    
     61170   220.06586     -930.91117     -79.357073      4335.7581    
     61180   223.03192     -931.10263      1802.7349      4328.1088    
     61190   201.53608     -930.61133      3330.632       4322.2433    
     61200   212.91068     -931.03106      3929.3114      4319.4951    
     61210   224.03013     -931.45601      3621.1147      4320.3682    
     61220   200.62621     -930.91659      2672.0254      4324.5481    
     61230   196.14366     -930.87848      1089.4423      4331.1099    
     61240   210.22387     -931.33608     -824.9983       4338.5763    
     61250   202.50351     -931.17144     -2447.4988      4345.1968    
     61260   187.1025      -930.77947     -3382.9528      4349.486     
     61270   185.29246     -930.75581     -3537.6627      4350.599     
     61280   199.8428      -931.18485     -3018.7684      4348.4263    
     61290   203.15267     -931.30179     -1894.7872      4343.5085    
     61300   201.01065     -931.26388     -363.33475      4336.9363    
     61310   207.56611     -931.46187      1262.5188      4330.1503    
     61320   206.77243     -931.45398      2603.0576      4324.6391    
     61330   195.28398     -931.15079      3287.3796      4321.5924    
     61340   197.26138     -931.22534      3125.7788      4321.5833    
     61350   197.17057     -931.24582      2314.1096      4324.431     
     61360   179.62093     -930.77703      1147.3093      4329.3674    
     61370   176.96759     -930.70949     -219.27661      4335.2907    
     61380   182.18344     -930.84467     -1453.1339      4340.9404    
     61390   187.51202     -930.97068     -2294.5177      4345.1841    
     61400   212.52899     -931.63903     -2692.7965      4347.2517    
     61410   225.88818     -931.99077     -2516.0892      4346.8111    
     61420   207.32688     -931.47035     -1807.1561      4344.0664    
     61430   201.00605     -931.29684     -910.20036      4339.6913    
     61440   198.20351     -931.21939      106.15326      4334.5515    
     61450   187.11918     -930.90603      1199.6174      4329.6083    
     61460   193.18505     -931.06229      2077.4125      4325.8503    
     61470   199.67163     -931.22655      2569.4963      4324.0589    
     61480   189.56613     -930.92994      2547.2417      4324.6497    
     61490   195.78464     -931.08524      1835.489       4327.5503    
     61500   207.38315     -931.38416      700.62291      4332.0914    
     61510   197.52316     -931.08254     -459.05905      4337.2298    
     61520   194.04835     -930.95354     -1581.4229      4341.875     
     61530   194.08757     -930.91494     -2400.1347      4345.0016    
     61540   188.63646     -930.71876     -2559.0954      4345.8905    
     61550   200.9595      -931.01054     -2102.756       4344.4181    
     61560   215.44405     -931.35464     -1198.41        4341.0372    
     61570   208.64467     -931.10606     -62.834777      4336.6114    
     61580   210.5562      -931.10021      949.01139      4332.1908    
     61590   222.58642     -931.37546      1690.5769      4328.7065    
     61600   203.8182      -930.80234      2198.2767      4326.8398    
     61610   201.19678     -930.68562      2138.0495      4327.0064    
     61620   219.07037     -931.13822      1484.476       4329.1198    
     61630   207.69919     -930.78205      643.65453      4332.582     
     61640   192.44055     -930.32101     -241.46308      4336.6035    
     61650   211.75566     -930.81554     -1146.3511      4340.349     
     61660   207.93689     -930.66415     -1690.8098      4343.008     
     61670   202.98627     -930.48599     -1824.6355      4344.0842    
     61680   227.08203     -931.11679     -1633.8105      4343.4644    
     61690   228.37788     -931.12325     -1077.2809      4341.3566    
     61700   208.19006     -930.5466      -375.14484      4338.2873    
     61710   215.35416     -930.73689      193.53374      4334.9025    
     61720   211.75672     -930.63346      782.14037      4331.7542    
     61730   191.65174     -930.07563      1346.0695      4329.3837    
     61740   197.09391     -930.22659      1639.0611      4328.2832    
     61750   217.6188      -930.7975       1639.503       4328.7079    
     61760   227.78909     -931.09235      1343.9709      4330.6404    
     61770   228.7833      -931.15379      705.86547      4333.784     
     61780   221.77683     -931.0159      -151.01547      4337.541     
     61790   219.2588      -931.02435     -1050.4243      4341.1165    
     61800   213.11958     -930.95377     -1754.6753      4343.6869    
     61810   195.3613      -930.5695      -2039.8346      4344.6197    
     61820   203.39167     -930.90344     -1936.1439      4343.6609    
     61830   215.97927     -931.37514     -1413.6252      4340.934     
     61840   186.44792     -930.6663      -421.24945      4336.9613    
     61850   176.1575      -930.45965      607.24957      4332.652     
     61860   206.69856     -931.37306      1336.4461      4328.9429    
     61870   203.23947     -931.33807      1915.1597      4326.5213    
     61880   181.35298     -930.77883      2214.3945      4325.8988    
     61890   195.1929      -931.20263      1880.6067      4327.3004    
     61900   204.55766     -931.49831      1087.0638      4330.4113    
     61910   195.5113      -931.27835      134.65202      4334.5004    
     61920   195.49607     -931.30258     -808.47853      4338.6808    
     61930   198.90127     -931.41678     -1550.0279      4342.0829    
     61940   198.3395      -931.4187      -1978.913       4344.0255    
     61950   199.5375      -931.47061     -2020.3         4344.1233    
     61960   195.45723     -931.37581     -1565.7068      4342.368     
     61970   201.17856     -931.55222     -798.06685      4339.1921    
     61980   206.78027     -931.72516      11.64376       4335.3121    
     61990   192.6435      -931.34958      719.9057       4331.4833    
     62000   174.00538     -930.84201      1303.0412      4328.3656    
     62010   170.81041     -930.75253      1699.1478      4326.4868    
     62020   168.5917      -930.67656      1853.3887      4326.1993    
     62030   182.12026     -931.02539      1619.9357      4327.6169    
     62040   195.84506     -931.36672      1050.6         4330.5134    
     62050   205.37665     -931.58398      250.93626      4334.3538    
     62060   211.80634     -931.71253     -580.24938      4338.4003    
     62070   207.9958      -931.55898     -1314.4827      4341.8815    
     62080   202.46722     -931.36177     -1890.9108      4344.1153    
     62090   207.56133     -931.46294     -2147.287       4344.5805    
     62100   198.14519     -931.16436     -1833.6602      4343.0744    
     62110   188.87188     -930.87052     -1086.3341      4339.8993    
     62120   196.35409     -931.03491     -140.9343       4335.7562    
     62130   196.80124     -930.99439      856.56358      4331.532     
     62140   195.99757     -930.91341      1656.5074      4328.1402    
     62150   209.27157     -931.21947      2072.0631      4326.3009    
     62160   200.9385      -930.92603      2157.9059      4326.3939    
     62170   199.03355     -930.816        1735.7648      4328.4663    
     62180   213.04454     -931.14584      817.31275      4332.1102    
     62190   201.1809      -930.7566      -219.94077      4336.4909    
     62200   199.9485      -930.66453     -1218.3488      4340.6416    
     62210   217.66339     -931.09666     -1945.3006      4343.6422    
     62220   195.72463     -930.43284     -2070.3489      4344.8463    
     62230   196.61153     -930.41042     -1822.3222      4344.1258    
     62240   229.55369     -931.27655     -1297.5357      4341.7226    
     62250   217.38845     -930.89789     -361.69541      4338.1625    
     62260   213.54338     -930.76286      566.62504      4334.2987    
     62270   240.01263     -931.47955      1168.975       4330.9771    
     62280   218.76587     -930.88968      1610.9087      4328.7719    
     62290   181.9517      -929.87643      1838.7398      4328.0811    
     62300   207.70221     -930.60125      1598.3488      4329.0802    
     62310   223.15653     -931.04485      1101.3656      4331.5547    
     62320   213.2232      -930.7957       396.13763      4335.0357    
     62330   219.50216     -931.01051     -565.93784      4338.8503    
     62340   217.00789     -931.00028     -1452.5471      4342.1221    
     62350   197.70549     -930.54218     -1983.5675      4344.0412    
     62360   190.9301      -930.44695     -2100.7626      4344.1178    
     62370   199.06835     -930.7883      -1732.6117      4342.2594    
     62380   197.73669     -930.88824     -862.7303       4338.8318    
     62390   192.323       -930.8816       201.19404      4334.6404    
     62400   193.69596     -931.05432      1147.6619      4330.6652    
     62410   207.64353     -931.56697      1793.9703      4327.7742    
     62420   200.85892     -931.48764      2116.2074      4326.5623    
     62430   199.64269     -931.53863      1947.3905      4327.3027    
     62440   211.6058      -931.9421       1291.6921      4329.8263    
     62450   196.12286     -931.56888      405.3228       4333.5347    
     62460   181.00507     -931.18581     -575.95709      4337.6019    
     62470   188.94703     -931.42734     -1471.2743      4341.1184    
     62480   190.84993     -931.49203     -2039.5747      4343.2632    
     62490   184.75237     -931.32929     -2172.6933      4343.515     
     62500   180.19461     -931.20452     -1792.071       4341.7647    
     62510   167.04328     -930.83054     -916.67542      4338.3857    
     62520   180.44495     -931.18034      92.345481      4334.1815    
     62530   196.14643     -931.57973      1077.2439      4330.0947    
     62540   182.34899     -931.15296      1903.0502      4327.0373    
     62550   197.67786     -931.53264      2190.718       4325.7387    
     62560   216.61162     -932.00958      1992.7075      4326.4615    
     62570   189.18431     -931.20585      1535.6661      4329.0335    
     62580   190.73142     -931.20972      618.37807      4332.999     
     62590   214.24514     -931.81497     -536.36941      4337.5136    
     62600   195.68595     -931.25102     -1425.1716      4341.5347    
     62610   182.19635     -930.83168     -2015.2147      4344.2252    
     62620   196.6001      -931.18249     -2291.5284      4345.0321    
     62630   192.71073     -931.02186     -2048.6567      4343.7229    
     62640   193.57561     -930.99427     -1368.7221      4340.53      
     62650   202.57131     -931.18821     -317.8619       4336.1029    
     62660   195.55024     -930.93427      944.07748      4331.4272    
     62670   203.13582     -931.08569      1937.1407      4327.6464    
     62680   214.66491     -931.34825      2393.8111      4325.6611    
     62690   203.39212     -930.9881       2327.4184      4325.8891    
     62700   200.21011     -930.86253      1733.6964      4328.257     
     62710   203.13255     -930.90836      776.76326      4332.2168    
     62720   198.83697     -930.75313     -295.58502      4336.889     
     62730   204.42755     -930.87146     -1325.6125      4341.2761    
     62740   207.96349     -930.93337     -2066.9028      4344.4276    
     62750   206.00608     -930.8487      -2305.9053      4345.6642    
     62760   213.55014     -931.03608     -2046.3793      4344.7654    
     62770   207.40753     -930.85082     -1370.2031      4341.9808    
     62780   204.42787     -930.75774     -482.49064      4337.9418    
     62790   220.81463     -931.20526      497.59835      4333.4823    
     62800   213.13389     -930.9908       1522.167       4329.5234    
     62810   198.27912     -930.58297      2214.5649      4326.9893    
     62820   215.58531     -931.07495      2233.42        4326.4887    
     62830   212.07452     -930.99936      1799.222       4328.0515    
     62840   194.00587     -930.52476      1056.9216      4331.278     
     62850   215.60523     -931.15579     -7.372298       4335.4644    
     62860   212.30084     -931.10363     -979.29678      4339.6476    
     62870   187.15509     -930.44844     -1689.8746      4342.9246    
     62880   199.08842     -930.8255      -2161.7195      4344.6207    
     62890   212.27987     -931.25049     -2154.2852      4344.3162    
     62900   195.06545     -930.84314     -1599.2493      4342.0321    
     62910   190.21785     -930.78265     -754.55927      4338.2778    
     62920   194.09374     -930.96666      270.77304      4333.8502    
     62930   197.02198     -931.12611      1316.4768      4329.7038    
     62940   206.24645     -931.46815      2064.8323      4326.7892    
     62950   207.52562     -931.60067      2350.1704      4325.7879    
     62960   208.03897     -931.72066      2066.3443      4326.9503    
     62970   205.97352     -931.77313      1254.579       4330.0082    
     62980   183.34891     -931.23991      202.70984      4334.2245    
     62990   174.46123     -931.05951     -909.74596      4338.6231    
     63000   191.99293     -931.59408     -1874.5119      4342.1719    
     63010   187.57818     -931.50764     -2333.1957      4343.9915    
     63020   168.96048     -931.01337     -2189.7334      4343.6591    
     63030   173.29116     -931.14313     -1621.0852      4341.2999    
     63040   182.92723     -931.40741     -703.97629      4337.4544    
     63050   183.3905      -931.4062       438.74475      4332.9845    
     63060   190.94864     -931.5936       1473.4906      4328.9397    
     63070   208.13509     -932.04631      2088.9429      4326.2602    
     63080   195.58446     -931.67776      2266.505       4325.5168    
     63090   183.27524     -931.32008      1894.6499      4326.8585    
     63100   190.52673     -931.50235      1060.6701      4329.9408    
     63110   186.03082     -931.35194      96.445386      4334.0095    
     63120   175.39703     -931.02399     -814.05619      4338.1738    
     63130   190.38163     -931.39874     -1594.62        4341.5795    
     63140   197.86277     -931.55843     -1960.747       4343.5152    
     63150   189.18594     -931.27153     -1843.652       4343.6422    
     63160   201.32215     -931.56415     -1470.439       4342.0541    
     63170   212.16937     -931.82163     -912.23578      4339.1039    
     63180   193.77512     -931.27279     -175.71061      4335.3234    
     63190   179.26046     -930.83341      643.01008      4331.4002    
     63200   175.91618     -930.69669      1471.9817      4328.0977    
     63210   183.58318     -930.85673      2058.9272      4326.169     
     63220   203.18737     -931.34247      2144.1685      4326.1365    
     63230   206.9285      -931.39023      1774.0455      4328.0838    
     63240   210.15024     -931.43283      965.34723      4331.6638    
     63250   210.85966     -931.41303     -114.80481      4336.1327    
     63260   192.74358     -930.87601     -1170.5944      4340.4997    
     63270   180.76829     -930.50992     -2004.2572      4343.7837    
     63280   197.05819     -930.92566     -2437.2466      4345.2075    
     63290   202.95748     -931.05281     -2165.1131      4344.3908    
     63300   204.95256     -931.07753     -1302.451       4341.5844    
     63310   216.61424     -931.37524     -235.58156      4337.5777    
     63320   223.51483     -931.5486       728.87163      4333.3546    
     63330   215.49859     -931.31895      1498.7256      4329.8176    
     63340   211.21156     -931.20387      1921.4725      4327.6705    
     63350   197.42738     -930.83062      1957.6587      4327.3045    
     63360   190.72688     -930.6548       1516.1861      4328.7415    
     63370   189.81445     -930.63507      692.07795      4331.5757    
     63380   187.96213     -930.58233     -223.91281      4335.0577    
     63390   184.53268     -930.47739     -914.7784       4338.3538    
     63400   196.35702     -930.78944     -1344.7854      4340.8132    
     63410   209.76871     -931.14354     -1490.5862      4342.0316    
     63420   208.13954     -931.08498     -1294.0451      4341.8764    
     63430   208.00035     -931.07342     -847.64563      4340.5268    
     63440   229.46735     -931.66964     -342.43961      4338.3885    
     63450   232.32073     -931.76488      190.37553      4335.9394    
     63460   208.35426     -931.13072      587.99362      4333.6673    
     63470   197.29069     -930.859        735.63065      4331.9345    
     63480   195.69791     -930.85081      849.2905       4330.8967    
     63490   180.47611     -930.45878      1054.7453      4330.6727    
     63500   193.17545     -930.83695      971.25224      4331.4199    
     63510   213.09904     -931.41736      549.07056      4333.0585    
     63520   206.07477     -931.25671      34.58367       4335.2147    
     63530   194.00261     -930.96052     -460.54821      4337.4135    
     63540   194.92964     -931.02786     -918.52133      4339.1886    
     63550   190.67903     -930.95536     -1219.1291      4340.117     
     63560   183.01163     -930.79047     -1225.8972      4339.9251    
     63570   188.56187     -930.99701     -886.47222      4338.6093    
     63580   201.15361     -931.40961     -271.65036      4336.4856    
     63590   207.83539     -931.67933      355.412        4334.1109    
     63600   198.42147     -931.52313      833.0583       4332.0636    
     63610   197.36819     -931.61524      1075.5491      4330.7847    
     63620   199.6618      -931.81313      1088.6666      4330.5034    
     63630   187.64974     -931.6111       867.04175      4331.2322    
     63640   170.04778     -931.22708      427.41162      4332.7661    
     63650   175.15644     -931.44572     -152.35818      4334.6987    
     63660   182.70598     -931.71255     -632.37241      4336.5056    
     63670   175.71172     -931.55698     -859.53467      4337.7467    
     63680   174.5147      -931.54586     -893.97464      4338.2001    
     63690   184.12801     -931.82242     -796.82616      4337.8262    
     63700   184.10421     -931.82237     -515.61052      4336.7199    
     63710   172.23056     -931.48388     -70.362966      4335.1449    
     63720   178.12463     -931.62835      302.58639      4333.4985    
     63730   189.3289      -931.90964      546.80337      4332.128     
     63740   181.96173     -931.66899      714.18311      4331.2685    
     63750   170.06859     -931.29739      746.74401      4331.0738    
     63760   182.92218     -931.60393      582.73175      4331.5688    
     63770   183.06547     -931.54663      419.5474       4332.6213    
     63780   175.52184     -931.27256      210.04811      4334.0746    
     63790   191.07709     -931.63386     -141.56618      4335.7244    
     63800   201.74303     -931.85406     -451.68191      4337.2567    
     63810   195.70029     -931.61638     -637.24833      4338.3863    
     63820   206.23217     -931.84707     -816.52884      4338.9235    
     63830   203.4092      -931.71427     -850.58234      4338.7096    
     63840   172.81318     -930.81924     -656.62811      4337.7166    
     63850   177.19548     -930.89597     -372.43073      4336.1102    
     63860   193.31096     -931.28917      81.859557      4334.165     
     63870   180.27472     -930.87071      605.27553      4332.301     
     63880   186.70023     -930.99377      869.81707      4330.9807    
     63890   200.65385     -931.32253      1001.9396      4330.4685    
     63900   191.7034      -931.0188       1080.2655      4330.9008    
     63910   202.40197     -931.26649      820.19146      4332.3305    
     63920   214.60396     -931.55915      296.40394      4334.527     
     63930   197.49358     -931.04611     -270.51158      4337.0228    
     63940   203.24318     -931.1741      -873.6703       4339.2805    
     63950   206.55312     -931.23652     -1187.41        4340.7576    
     63960   191.21587     -930.78515     -1157.3716      4341.156     
     63970   208.76134     -931.24899     -1072.1629      4340.4686    
     63980   223.56858     -931.64103     -759.86653      4338.7858    
     63990   197.27496     -930.90029     -94.519043      4336.4108    
     64000   200.07578     -930.97093      458.25048      4333.924     
     64010   203.91142     -931.06952      811.56468      4331.8413    
     64020   181.78592     -930.44547      1060.3044      4330.5082    
     64030   196.81196     -930.84981      1045.5611      4330.1467    
     64040   206.04971     -931.08958      935.22029      4330.7669    
     64050   185.93399     -930.5139       796.60245      4332.2814    
     64060   204.63004     -931.01389      328.26701      4334.539     
     64070   219.71896     -931.41153     -259.54183      4337.126     
     64080   199.76812     -930.84108     -708.84173      4339.5137    
     64090   217.38536     -931.31907     -1192.0204      4341.255     
     64100   227.87431     -931.60817     -1454.3116      4341.9074    
     64110   188.49528     -930.52287     -1228.1927      4341.2361    
     64120   192.25733     -930.63614     -849.40189      4339.4083    
     64130   218.52225     -931.37359     -352.00972      4336.7698    
     64140   207.14719     -931.07175      404.33256      4333.7996    
     64150   198.25854     -930.84478      1083.3379      4331.1785    
     64160   198.4115      -930.87235      1405.8173      4329.5273    
     64170   190.83276     -930.6873       1437.9779      4329.1675    
     64180   197.08417     -930.88858      1221.6797      4330.1477    
     64190   207.91929     -931.22302      782.0409       4332.2837    
     64200   209.60762     -931.31339      169.51332      4335.1822    
     64210   211.9269      -931.43517     -572.59029      4338.2775    
     64220   199.49216     -931.15897     -1218.3413      4340.8887    
     64230   190.40218     -930.9794      -1614.0057      4342.4065    
     64240   197.58522     -931.25729     -1713.3364      4342.4405    
     64250   190.96045     -931.15515     -1432.3917      4340.8821    
     64260   181.18694     -930.95897     -783.50029      4337.9747    
     64270   186.06488     -931.16001      88.75506       4334.3038    
     64280   191.45295     -931.36757      975.41741      4330.668     
     64290   186.52188     -931.28046      1694.8302      4327.892     
     64300   188.17989     -931.36872      2017.2668      4326.6478    
     64310   203.5681      -931.83687      1826.7443      4327.2539    
     64320   205.88141     -931.94568      1280.2739      4329.5772    
     64330   186.83247     -931.45839      507.25626      4333.1452    
     64340   187.67736     -931.51415     -500.72342      4337.2474    
     64350   198.72811     -931.84699     -1475.9612      4340.9599    
     64360   181.82296     -931.39817     -2047.3997      4343.378     
     64370   168.87999     -931.05062     -2202.1552      4343.929     
     64380   179.34383     -931.34373     -1960.159       4342.4254    
     64390   173.61305     -931.17547     -1173.6402      4339.0753    
     64400   170.03971     -931.05328     -30.869         4334.5782    
     64410   191.42935     -931.60651      1104.6135      4329.9689    
     64420   204.44174     -931.91318      2003.4379      4326.303     
     64430   196.81487     -931.64571      2498.7624      4324.4343    
     64440   194.09066     -931.51748      2425.6348      4324.8514    
     64450   189.1328      -931.3255       1812.8781      4327.5378    
     64460   182.7588      -931.08925      765.88605      4331.976     
     64470   193.46422     -931.31589     -511.32676      4337.2312    
     64480   198.34305     -931.36957     -1592.5209      4342.1455    
     64490   203.78289     -931.43874     -2304.5126      4345.6899    
     64500   207.53885     -931.46808     -2614.6335      4347.151     
     64510   204.32563     -931.31772     -2491.7271      4346.1838    
     64520   193.51518     -930.96982     -1839.4239      4342.8602    
     64530   183.80909     -930.65834     -673.18542      4337.7524    
     64540   189.02875     -930.75844      734.9735       4331.9134    
     64550   203.49576     -931.11227      1987.0845      4326.6324    
     64560   198.76807     -930.93864      2863.6281      4323.0909    
     64570   196.31379     -930.83957      3139.1226      4322.1349    
     64580   210.32241     -931.20811      2736.8598      4324.0809    
     64590   212.43608     -931.25698      1731.7822      4328.6299    
     64600   200.40586     -930.91841      266.87617      4334.9134    
     64610   206.13635     -931.07103     -1380.264       4341.6071    
     64620   206.70821     -931.07847     -2688.9443      4347.1917    
     64630   198.88024     -930.85619     -3402.9966      4350.3986    
     64640   206.52766     -931.07086     -3467.9153      4350.4794    
     64650   209.94724     -931.17809     -2762.5057      4347.304     
     64660   192.15858     -930.69891     -1367.6055      4341.4697    
     64670   201.23865     -930.95998      298.38312      4334.2164    
     64680   209.65531     -931.19557      2033.3729      4327.0889    
     64690   200.22697     -930.93403      3443.2119      4321.7038    
     64700   211.03008     -931.2411       3942.0896      4319.38      
     64710   219.89218     -931.51041      3481.5823      4320.657     
     64720   197.74028     -930.93012      2368.4479      4325.2215    
     64730   194.79161     -930.88186      694.59918      4332.1142    
     64740   193.79664     -930.87807     -1163.0352      4339.8428    
     64750   178.51465     -930.46377     -2749.587       4346.6926    
     64760   190.26671     -930.79226     -3801.9079      4351.1321    
     64770   202.38698     -931.13352     -3965.0495      4352.1125    
     64780   194.1157      -930.91506     -3156.9469      4349.3979    
     64790   212.69364     -931.44654     -1793.4133      4343.6433    
     64800   219.17831     -931.64547     -52.916047      4336.0812    
     64810   192.72795     -930.9275       1837.5855      4328.322     
     64820   208.00583     -931.36593      3233.0416      4322.0987    
     64830   224.94544     -931.86439      3910.6156      4318.7434    
     64840   189.15011     -930.91581      3883.7324      4318.9598    
     64850   185.32968     -930.86054      2879.4182      4322.7785    
     64860   207.41707     -931.52983      1203.0956      4329.3684    
     64870   183.58568     -930.91965     -504.32477      4337.2703    
     64880   176.60525     -930.76382     -2186.2387      4344.8892    
     64890   196.57145     -931.35075     -3612.0072      4350.6225    
     64900   195.40017     -931.35752     -4251.4317      4353.0959    
     64910   184.00076     -931.08981     -3889.5756      4351.6343    
     64920   184.44212     -931.15445     -2711.0157      4346.4872    
     64930   189.68805     -931.34858     -974.83011      4338.6975    
     64940   186.5242      -931.29824      1066.0359      4329.8608    
     64950   184.75076     -931.27251      3022.3843      4321.8678    
     64960   198.26931     -931.66851      4403.3027      4316.5375    
     64970   202.48522     -931.81802      4849.4176      4315.1856    
     64980   196.69178     -931.70696      4142.2052      4318.2888    
     64990   199.0831      -931.8322       2397.0421      4325.2896    
     65000   205.31891     -932.06505      26.640737      4334.6646    
     65010   182.98678     -931.4935      -2332.5683      4344.271     
     65020   162.62286     -930.95845     -4197.9177      4351.8918    
     65030   159.56012     -930.89362     -5132.9884      4355.7221    
     65040   163.99379     -931.03503     -4881.5781      4354.8043    
     65050   180.72776     -931.5155      -3520.6516      4349.2915    
     65060   193.33942     -931.86964     -1341.2234      4340.402     
     65070   190.57384     -931.77684      1144.1588      4330.1357    
     65080   189.1279      -931.70069      3349.5976      4320.7867    
     65090   186.89639     -931.59058      4865.6182      4314.4096    
     65100   182.80952     -931.428        5334.95        4312.4312    
     65110   191.67483     -931.62701      4549.7644      4315.336     
     65120   196.04939     -931.6943       2774.1753      4322.4955    
     65130   182.70163     -931.25536      504.518        4332.3639    
     65140   181.47778     -931.13105     -1885.2986      4342.8734    
     65150   190.61514     -931.2705      -3890.443       4351.7969    
     65160   199.08225     -931.38555     -5054.0962      4357.2152    
     65170   204.36414     -931.42933     -5159.7756      4357.9647    
     65180   204.57102     -931.35866     -4191.8273      4353.8789    
     65190   196.93995     -931.09013     -2325.3524      4345.8219    
     65200   193.92019     -930.9525      -14.959666      4335.5068    
     65210   198.73715     -931.02465      2293.2392      4325.0776    
     65220   195.78821     -930.87729      4238.8556      4316.6819    
     65230   194.7006      -930.79074      5372.892       4312.1185    
     65240   203.24077     -930.98977      5374.0317      4312.4524    
     65250   197.17554     -930.80181      4251.1953      4317.7455    
     65260   198.30003     -930.81971      2108.6106      4327.027     
     65270   219.49458     -931.38468     -603.7932       4338.3813    
     65280   219.56085     -931.35428     -3143.0418      4349.3312    
     65290   192.71504     -930.57873     -5004.0326      4357.48      
     65300   191.86163     -930.53411     -5892.6423      4361.0187    
     65310   207.55997     -930.96532     -5458.9235      4359.0673    
     65320   203.30041     -930.85609     -3695.3681      4352.0005    
     65330   217.84512     -931.27003     -1193.7272      4341.4291    
     65340   229.86259     -931.60709      1565.8997      4329.6883    
     65350   212.08284     -931.11405      4009.5952      4319.3366    
     65360   203.8531      -930.89249      5461.9678      4312.6074    
     65370   201.79297     -930.85882      5748.7019      4310.8539    
     65380   192.99792     -930.65606      4881.8166      4314.3754    
     65390   187.87834     -930.55955      2947.195       4322.4213    
     65400   191.08636     -930.68137      343.6102       4333.2659    
     65410   192.33883     -930.72638     -2251.1501      4344.5448    
     65420   201.12852     -930.96698     -4322.7477      4353.8325    
     65430   203.43087     -931.03108     -5432.8573      4359.1586    
     65440   208.63024     -931.19499     -5442.3155      4359.4296    
     65450   216.70209     -931.46305     -4354.3526      4354.6038    
     65460   209.00851     -931.30816     -2246.1506      4345.7033    
     65470   201.52886     -931.15443      379.02565      4334.6924    
     65480   212.67697     -931.5108       2777.0273      4323.993     
     65490   204.81568     -931.34393      4562.869       4315.8258    
     65500   181.39379     -930.75059      5444.9543      4311.8322    
     65510   191.83372     -931.11081      5090.9867      4312.8096    
     65520   192.58163     -931.21627      3740.6395      4318.4769    
     65530   172.57759     -930.73687      1717.3934      4327.6393    
     65540   184.74629     -931.1289      -811.81841      4338.4409    
     65550   204.08004     -931.70381     -3217.5594      4348.5582    
     65560   193.22925     -931.43599     -4786.8591      4355.7524    
     65570   188.2438      -931.33585     -5365.8415      4358.5081    
     65580   199.44134     -931.69989     -4951.3947      4356.2455    
     65590   188.08723     -931.44626     -3429.5738      4349.3638    
     65600   175.72309     -931.15256     -1092.6161      4339.2917    
     65610   183.67819     -931.39827      1518.0912      4328.208     
     65620   190.65316     -931.59551      3834.1047      4318.5268    
     65630   187.14489     -931.49503      5284.3578      4312.359     
     65640   188.26096     -931.53108      5537.117       4311.0189    
     65650   187.09804     -931.51435      4652.2187      4314.7546    
     65660   185.23271     -931.47804      2786.5907      4322.7792    
     65670   189.84193     -931.60521      296.34919      4333.4077    
     65680   188.36117     -931.53705     -2215.7157      4344.366     
     65690   185.57997     -931.41007     -4251.0283      4353.3115    
     65700   190.15955     -931.47456     -5421.733       4358.3181    
     65710   185.02654     -931.26442     -5392.1177      4358.2765    
     65720   182.2938      -931.11478     -4198.1313      4353.2054    
     65730   201.8321      -931.55819     -2176.0062      4344.2231    
     65740   206.01762     -931.54229      398.87349      4333.2468    
     65750   190.68185     -930.97341      2968.6592      4322.6696    
     65760   194.84802     -930.95086      4786.4318      4314.8304    
     65770   202.16003     -931.03189      5539.9012      4311.3821    
     65780   190.12706     -930.61116      5204.7182      4313.0149    
     65790   198.73909     -930.79252      3722.9938      4319.417     
     65800   209.52037     -931.04116      1463.8757      4329.2608    
     65810   207.77663     -930.94114     -1067.2316      4340.4886    
     65820   212.09875     -931.00685     -3398.4834      4350.7534    
     65830   215.72487     -931.05962     -4998.0255      4357.8735    
     65840   207.29125     -930.7981      -5494.6621      4360.3399    
     65850   214.3967      -930.99272     -4920.8893      4357.668     
     65860   223.07828     -931.25028     -3356.1421      4350.4123    
     65870   207.73028     -930.84636     -984.79547      4340.0723    
     65880   201.87721     -930.69453      1613.6132      4328.8647    
     65890   213.69922     -931.0236       3806.1543      4319.1831    
     65900   200.43197     -930.65928      5204.3135      4313.0297    
     65910   186.13688     -930.27777      5476.2987      4311.6524    
     65920   197.44497     -930.61896      4602.3467      4315.2895    
     65930   204.94442     -930.86073      2839.8536      4323.1538    
     65940   194.74325     -930.60365      523.90342      4333.6432    
     65950   209.27839     -931.01875     -2025.711       4344.6141    
     65960   225.0981      -931.46459     -4124.1717      4353.7121    
     65970   222.43253     -931.41505     -5270.8366      4358.9729    
     65980   206.82967     -931.03241     -5339.2565      4359.3081    
     65990   201.64813     -930.95867     -4389.7814      4354.6572    
     66000   203.07348     -931.07636     -2495.9945      4345.9478    
     66010   191.76955     -930.82987      40.018368      4334.9842    
     66020   189.21898     -930.8026       2585.1495      4324.1244    
     66030   210.83782     -931.43805      4526.2132      4315.6953    
     66040   202.02354     -931.23823      5582.1987      4311.4586    
     66050   185.2991      -930.82961      5409.9197      4312.3362    
     66060   196.59208     -931.20822      3974.4166      4318.1493    
     66070   193.88504     -931.19438      1769.6981      4327.6077    
     66080   191.1759      -931.16136     -807.54608      4338.6874    
     66090   206.1576      -931.60208     -3273.1327      4349.0011    
     66100   198.45548     -931.40851     -4960.1064      4356.2634    
     66110   176.51785     -930.82295     -5536.885       4358.8926    
     66120   184.02449     -931.06238     -5004.1934      4356.3483    
     66130   190.94557     -931.28809     -3358.0352      4349.1716    
     66140   189.6116      -931.27337     -929.25268      4338.9395    
     66150   199.59079     -931.55371      1663.257       4327.9239    
     66160   193.52817     -931.37181      3955.5345      4318.5273    
     66170   197.18458     -931.45754      5324.9908      4312.8112    
     66180   210.76913     -931.83305      5423.851       4311.9816    
     66190   195.29812     -931.41948      4393.3224      4316.1148    
     66200   181.53575     -931.05609      2426.5785      4324.2556    
     66210   187.85621     -931.23373     -29.725244      4334.6035    
     66220   179.06551     -930.96606     -2287.7296      4344.9117    
     66230   182.89741     -931.02819     -4043.2148      4353.0669    
     66240   216.85041     -931.91453     -5110.5225      4357.4152    
     66250   215.55664     -931.82647     -5066.2011      4356.9916    
     66260   186.4879      -930.98123     -3893.4692      4351.8698    
     66270   178.94391     -930.72618     -1983.7938      4343.1723    
     66280   179.75299     -930.66961      345.3397       4332.7193    
     66290   175.75192     -930.44184      2759.5986      4322.6949    
     66300   197.873       -930.91032      4651.8037      4315.2928    
     66310   223.24838     -931.45991      5568.5463      4312.2016    
     66320   222.29434     -931.31301      5276.0202      4314.2139    
     66330   221.0555      -931.20432      3723.584       4321.0264    
     66340   224.87132     -931.26         1302.2436      4331.2168    
     66350   222.47183     -931.15084     -1403.8672      4342.5633    
     66360   212.41633     -930.83199     -3819.6743      4352.5582    
     66370   207.12565     -930.65459     -5407.8206      4358.953     
     66380   202.29646     -930.50888     -5755.8936      4360.2833    
     66390   199.02308     -930.42623     -4843.3815      4356.2542    
     66400   201.8514      -930.52096     -2941.6918      4347.7661    
     66410   201.56062     -930.52064     -379.24503      4336.6529    
     66420   199.3019      -930.44814      2350.1727      4325.324     
     66430   200.67576     -930.46354      4629.9264      4316.2807    
     66440   211.08727     -930.73567      5847.3376      4311.552     
     66450   219.74229     -930.98274      5723.2997      4312.1893    
     66460   226.89663     -931.21702      4320.1414      4318.0372    
     66470   226.76404     -931.26663      2008.0516      4327.7996    
     66480   218.21294     -931.0845      -731.61497      4339.3445    
     66490   200.37428     -930.63256     -3304.2533      4350.1399    
     66500   203.77092     -930.76501     -5166.2721      4357.7933    
     66510   210.87501     -931.01629     -5782.8613      4360.5954    
     66520   201.06099     -930.81874     -5056.8004      4358.0076    
     66530   202.08251     -930.93131     -3390.5454      4350.7471    
     66540   211.93015     -931.28762     -1141.3735      4340.4314    
     66550   203.8415      -931.13268      1388.6403      4329.2072    
     66560   188.74397     -930.76187      3651.3112      4319.4091    
     66570   185.02524     -930.69278      5118.0841      4313.0701    
     66580   193.84226     -930.97467      5464.0083      4311.4651    
     66590   195.52462     -931.06809      4689.8929      4314.8568    
     66600   195.63869     -931.11998      2973.7321      4322.5002    
     66610   204.71821     -931.41126      633.79725      4332.8006    
     66620   209.73609     -931.57546     -1851.8978      4343.5946    
     66630   196.30652     -931.21583     -3921.8236      4352.5837    
     66640   185.34987     -930.91982     -5160.4043      4357.8514    
     66650   200.46377     -931.35545     -5354.4998      4358.2695    
     66660   206.77834     -931.56137     -4361.9799      4353.7231    
     66670   186.01584     -931.01747     -2351.6022      4345.2143    
     66680   188.5229      -931.10348      60.862623      4334.6547    
     66690   203.65754     -931.52028      2414.0937      4324.3071    
     66700   193.46475     -931.22306      4371.9893      4316.3325    
     66710   190.3399      -931.12466      5391.4096      4312.4537    
     66720   201.57961     -931.43727      5173.2301      4313.5241    
     66730   197.45759     -931.33461      3811.2996      4319.292     
     66740   191.19112     -931.17069      1582.908       4328.475     
     66750   193.76924     -931.2355      -972.39483      4339.0158    
     66760   192.84605     -931.18501     -3216.4072      4348.5593    
     66770   184.24449     -930.91359     -4725.7307      4355.0278    
     66780   183.37473     -930.86022     -5258.2505      4357.0382    
     66790   190.89672     -931.04678     -4563.9888      4354.1615    
     66800   192.99292     -931.08305     -2715.7502      4347.1256    
     66810   203.38169     -931.33881     -354.80225      4337.6931    
     66820   219.22434     -931.73212      1888.8477      4328.0739    
     66830   218.55168     -931.6664       3649.573       4320.3332    
     66840   198.39292     -931.07162      4674.8312      4316.0476    
     66850   196.96959     -931.01137      4648.4635      4316.0776    
     66860   200.07097     -931.08474      3562.0904      4320.3389    
     66870   197.89366     -931.01107      1693.3053      4327.7998    
     66880   196.8589      -930.95773     -452.6447       4336.733     
     66890   198.14091     -930.95355     -2374.0767      4345.1573    
     66900   195.58083     -930.83214     -3717.2483      4351.297     
     66910   200.22108     -930.90731     -4266.6447      4353.9227    
     66920   202.16327     -930.90451     -3873.1599      4352.5732    
     66930   207.04439     -930.97449     -2727.2569      4347.6624    
     66940   212.84509     -931.04801     -1077.2307      4340.3114    
     66950   200.96694     -930.60278      861.69248      4332.0987    
     66960   199.31915     -930.41634      2595.0546      4324.81      
     66970   221.30261     -930.86058      3703.1339      4320.0023    
     66980   223.86141     -930.76814      4144.9609      4318.6585    
     66990   227.94477     -930.75407      3725.2207      4321.118     
     67000   245.04076     -931.13731      2410.6364      4326.9423    
     67010   235.1761      -930.80653      569.47931      4334.9067    
     67020   213.42869     -930.16925     -1439.7365      4343.2999    
     67030   217.67896     -930.26292     -3245.2306      4350.2569    
     67040   211.0047      -930.06384     -4233.2658      4354.1412    
     67050   203.88247     -929.86791     -4200.424       4354.0696    
     67060   217.52225     -930.26231     -3269.3649      4350.1178    
     67070   222.70242     -930.43193     -1596.0232      4343.2176    
     67080   219.01257     -930.35846      433.6683       4334.9648    
     67090   232.48429     -930.76522      2278.4428      4327.2385    
     67100   237.70181     -930.95909      3579.284       4321.7172    
     67110   222.84187     -930.61615      4063.558       4319.5454    
     67120   220.38147     -930.6343       3576.3415      4321.1043    
     67130   216.11175     -930.6124       2390.718       4325.9181    
     67140   203.96771     -930.36523      794.9421       4332.8742    
     67150   207.38825     -930.5359      -1020.4034      4340.4758    
     67160   216.39422     -930.85239     -2619.6954      4347.0507    
     67170   213.62382     -930.84149     -3562.1814      4351.1388    
     67180   200.08437     -930.53063     -3684.0826      4351.8906    
     67190   201.85471     -930.64276     -3073.4537      4349.2263    
     67200   215.22262     -931.07679     -1814.8409      4343.7676    
     67210   217.36275     -931.1975      -102.79796      4336.7303    
     67220   215.3761      -931.1983       1607.7114      4329.7084    
     67230   220.92407     -931.40855      2833.3059      4324.2557    
     67240   210.11608     -931.17029      3361.4225      4321.4668    
     67250   183.96369     -930.50235      3188.2916      4321.7904    
     67260   184.91369     -930.57699      2348.64        4325.027     
     67270   204.18928     -931.15411      1022.2976      4330.3786    
     67280   198.38758     -931.0278      -419.22996      4336.6209    
     67290   187.35933     -930.74635     -1685.6405      4342.4187    
     67300   192.64987     -930.90935     -2557.5227      4346.6042    
     67310   206.14345     -931.29984     -2933.7147      4348.3796    
     67320   207.92184     -931.37201     -2730.5678      4347.4248    
     67330   200.81808     -931.20365     -1946.7024      4343.9671    
     67340   200.12934     -931.21283     -742.94326      4338.7667    
     67350   208.25507     -931.46481      615.38427      4332.9571    
     67360   197.64508     -931.19414      1873.7404      4327.7983    
     67370   194.43778     -931.12626      2634.1619      4324.4183    
     67380   212.85519     -931.66427      2721.8305      4323.4834    
     67390   199.56703     -931.33021      2320.4836      4325.0624    
     67400   176.36105     -930.71834      1449.8796      4328.7553    
     67410   186.88099     -931.03308      211.87747      4333.7388    
     67420   196.28367     -931.30738     -991.52385      4338.8795    
     67430   189.26993     -931.11934     -1896.9679      4343.0687    
     67440   197.15776     -931.34315     -2451.3487      4345.4643    
     67450   193.44709     -931.2453      -2433.1407      4345.5814    
     67460   179.36088     -930.85754     -1881.7864      4343.4577    
     67470   187.62466     -931.08286     -1030.3386      4339.618     
     67480   201.99518     -931.46758      56.481014      4334.8797    
     67490   200.89293     -931.41543      1228.1938      4330.2619    
     67500   207.29046     -931.5692       2068.2615      4326.8208    
     67510   210.30626     -931.63083      2412.3865      4325.3121    
     67520   196.94611     -931.24227      2246.8151      4326.0348    
     67530   193.86123     -931.13925      1521.9628      4328.8077    
     67540   193.75648     -931.11095      477.46892      4332.9592    
     67550   190.49907     -930.98344     -601.8446       4337.5261    
     67560   192.88963     -930.99937     -1522.9649      4341.5079    
     67570   196.05938     -931.02371     -2062.6874      4344.0609    
     67580   202.59813     -931.13192     -2129.9999      4344.6949    
     67590   208.96294     -931.22869     -1778.8333      4343.3578    
     67600   205.72148     -931.05718     -1061.4955      4340.3959    
     67610   202.8815      -930.89717     -124.44084      4336.4885    
     67620   204.63421     -930.86333      785.29543      4332.5045    
     67630   207.74606     -930.86795      1483.735       4329.2805    
     67640   204.70749     -930.70782      1909.754       4327.457     
     67650   204.40269     -930.63236      1943.9429      4327.4075    
     67660   207.94485     -930.67153      1559.0901      4329.1471    
     67670   206.92198     -930.59113      884.53793      4332.3164    
     67680   213.90537     -930.73956      25.737544      4336.2843    
     67690   226.41355     -931.04902     -859.40257      4340.2541    
     67700   222.00938     -930.9025      -1535.2181      4343.4141    
     67710   221.53223     -930.88092     -1926.7391      4345.1365    
     67720   231.08408     -931.15507     -1968.16        4345.0656    
     67730   219.89995     -930.87144     -1568.2017      4343.1842    
     67740   207.55922     -930.56536     -889.19487      4339.8693    
     67750   208.34158     -930.62766     -78.779742      4335.7588    
     67760   195.43329     -930.308        867.13483      4331.6235    
     67770   187.91235     -930.13125      1675.3193      4328.3248    
     67780   203.42283     -930.59062      2075.1582      4326.5883    
     67790   218.0053      -931.03119      2024.9349      4326.7722    
     67800   209.92575     -930.85163      1619.8042      4328.8284    
     67810   211.08643     -930.93581      835.30154      4332.3646    
     67820   207.39789     -930.88811     -116.6083       4336.6608    
     67830   207.00538     -930.93221     -1086.9577      4340.8313    
     67840   212.91108     -931.15429     -1865.9004      4343.9796    
     67850   214.67032     -931.26776     -2201.2229      4345.3959    
     67860   215.24717     -931.35701     -2046.1928      4344.7744    
     67870   201.00247     -931.03594     -1461.0834      4342.2681    
     67880   192.29685     -930.85702     -594.83923      4338.4296    
     67890   208.2278      -931.35342      329.44709      4334.0638    
     67900   205.88086     -931.3363       1250.1218      4330.0394    
     67910   190.65348     -930.95146      1929.0442      4327.1956    
     67920   193.44448     -931.05728      2064.1824      4326.1326    
     67930   195.54777     -931.13863      1722.0525      4326.9721    
     67940   174.745       -930.57467      1169.9194      4329.4109    
     67950   176.58562     -930.62753      409.9803       4332.9247    
     67960   196.14271     -931.16113     -413.03947      4336.8117    
     67970   202.9554      -931.33662     -1095.9104      4340.3147    
     67980   202.04968     -931.29981     -1519.1794      4342.8006    
     67990   211.44959     -931.55327     -1669.7313      4343.8737    
     68000   228.7866      -932.03748     -1627.0537      4343.3888    
     68010   215.55172     -931.68742     -1323.2596      4341.3997    
     68020   188.23387     -930.95084     -746.24665      4338.2007    
     68030   182.71946     -930.81215      32.040903      4334.3349    
     68040   187.61907     -930.95247      911.68386      4330.529     
     68050   181.31827     -930.77203      1717.2202      4327.5935    
     68060   189.53987     -930.98788      2142.6247      4326.2516    
     68070   210.95846     -931.56781      2005.7165      4326.8797    
     68080   208.17112     -931.47987      1428.9376      4329.3565    
     68090   193.20429     -931.05759      551.21294      4333.1505    
     68100   191.61859     -931.00298     -490.17042      4337.4475    
     68110   194.10648     -931.05425     -1416.1942      4341.2906    
     68120   194.78342     -931.05045     -2016.8093      4343.8228    
     68130   202.19703     -931.23237     -2190.3958      4344.4855    
     68140   204.0984      -931.26258     -1837.1242      4343.1273    
     68150   195.78529     -931.01017     -1045.9026      4340.0819    
     68160   199.01314     -931.07507     -119.41617      4336.0763    
     68170   203.81423     -931.178        792.2457       4331.9748    
     68180   197.56671     -930.97057      1630.8833      4328.6305    
     68190   203.22258     -931.09157      2130.2676      4326.8023    
     68200   215.20831     -931.38804      2096.489       4326.9361    
     68210   205.00969     -931.07237      1613.5792      4329.0059    
     68220   198.64237     -930.86488      752.832        4332.5634    
     68230   212.57666     -931.21578     -321.71418      4336.8133    
     68240   208.38026     -931.05878     -1231.4113      4340.7783    
     68250   197.80581     -930.72503     -1851.7977      4343.6079    
     68260   201.00822     -930.77079     -2125.183       4344.7187    
     68270   202.13201     -930.75375     -1899.0957      4343.8672    
     68280   201.27361     -930.67685     -1245.9819      4341.2644    
     68290   207.09528     -930.77773     -390.57488      4337.5136    
     68300   215.76991     -930.94986      507.71         4333.4113    
     68310   205.55179     -930.59489      1370.0193      4329.7987    
     68320   202.50713     -930.44026      1938.1869      4327.4591    
     68330   212.36971     -930.64157      2135.6189      4326.9159    
     68340   223.37223     -930.87631      1966.3246      4328.3534    
     68350   234.70626     -931.12996      1319.1961      4331.6037    
     68360   237.87801     -931.17358      292.58651      4336.071     
     68370   227.633       -930.8641      -847.52037      4340.8144    
     68380   213.5336      -930.46255     -1866.9568      4344.7757    
     68390   206.33325     -930.26154     -2505.9313      4347.0098    
     68400   209.58304     -930.35926     -2564.3944      4346.9251    
     68410   209.7616      -930.38042     -2012.5715      4344.4709    
     68420   213.48639     -930.50919     -1046.4309      4340.1561    
     68430   208.33674     -930.39781      203.5717       4334.8905    
     68440   208.41223     -930.43611      1425.3801      4329.8276    
     68450   220.75635     -930.82706      2299.8345      4326.0862    
     68460   215.67616     -930.75482      2728.0375      4324.4744    
     68470   208.74342     -930.64851      2572.335       4325.379     
     68480   224.72908     -931.20173      1772.678       4328.6484    
     68490   215.65395     -931.07795      653.1372       4333.5684    
     68500   201.05633     -930.79549     -648.53119      4339.101     
     68510   211.26115     -931.19245     -1957.1489      4344.0326    
     68520   207.86653     -931.20497     -2808.4335      4347.1617    
     68530   184.76342     -930.64866     -2909.2952      4347.7024    
     68540   193.66452     -930.96194     -2412.887       4345.5415    
     68550   203.79715     -931.29916     -1401.3321      4341.1475    
     68560   193.20623     -931.04714     -24.969612      4335.4713    
     68570   198.20752     -931.2141       1321.7157      4329.78      
     68580   208.76975     -931.52951      2358.4076      4325.3148    
     68590   197.58338     -931.24086      2929.4188      4323.0317    
     68600   187.69229     -930.98738      2816.488       4323.442     
     68610   196.87758     -931.26148      2018.4667      4326.4415    
     68620   202.32652     -931.42947      827.21835      4331.3137    
     68630   187.16842     -931.01926     -440.74414      4336.9727    
     68640   184.15185     -930.93614     -1627.8802      4342.2374    
     68650   201.16469     -931.40167     -2521.6362      4346.0005    
     68660   203.73991     -931.46758     -2860.5878      4347.432     
     68670   189.31784     -931.06579     -2546.79        4346.2156    
     68680   193.72781     -931.18703     -1718.6751      4342.6356    
     68690   194.08593     -931.18975     -489.74997      4337.4725    
     68700   190.62224     -931.07821      813.58733      4331.8618    
     68710   199.27745     -931.29581      1914.06        4327.0069    
     68720   196.146       -931.18201      2684.3724      4323.9288    
     68730   202.36683     -931.32965      2861.2839      4323.3221    
     68740   212.90451     -931.60118      2402.1011      4325.3502    
     68750   203.20845     -931.31596      1443.7818      4329.6023    
     68760   201.68321     -931.25812      69.121212      4335.192     
     68770   207.15888     -931.39043     -1364.9085      4340.8594    
     68780   186.21597     -930.78596     -2382.0943      4345.2903    
     68790   173.15227     -930.39627     -2891.4694      4347.5205    
     68800   191.6393      -930.87426     -2866.9656      4347.0615    
     68810   194.49777     -930.90815     -2121.1199      4343.9539    
     68820   199.89087     -931.00568     -868.36653      4338.8871    
     68830   214.01695     -931.33494      577.88771      4333.023     
     68840   205.21145     -931.02261      1954.029       4327.7055    
     68850   205.507       -930.96546      2800.5084      4324.1838    
     68860   219.9342      -931.3039       2972.5929      4323.2354    
     68870   211.03165     -931.00424      2637.7319      4325.039     
     68880   210.45654     -930.94659      1687.4841      4329.2771    
     68890   227.00621     -931.36718      228.37575      4335.075     
     68900   208.87509     -930.82904     -1194.2879      4341.1145    
     68910   193.55537     -930.37281     -2345.1553      4346.0682    
     68920   211.82121     -930.84884     -3093.5481      4348.8484    
     68930   211.63049     -930.81772     -3135.6351      4348.7648    
     68940   191.86078     -930.25162     -2422.8827      4345.7783    
     68950   201.06572     -930.48924     -1199.0214      4340.5434    
     68960   209.33313     -930.69134      403.31194      4334.215     
     68970   213.21066     -930.76613      1929.3897      4328.2666    
     68980   229.84187     -931.19816      2896.3653      4324.0886    
     68990   228.07665     -931.13604      3228.8163      4322.5782    
     69000   201.24742     -930.39712      2895.7558      4324.0456    
     69010   202.20173     -930.43922      1795.7087      4328.1732    
     69020   206.56922     -930.57657      384.11         4333.9812    
     69030   213.76462     -930.79488     -1003.5771      4340.1751    
     69040   227.44473     -931.20534     -2186.9218      4345.4597    
     69050   221.29582     -931.08957     -2907.3502      4348.7298    
     69060   206.29645     -930.75041     -3021.9683      4349.3064    
     69070   210.35437     -930.96119     -2572.6424      4347.0698    
     69080   198.85373     -930.75223     -1534.2233      4342.4509    
     69090   190.19893     -930.61385     -159.31198      4336.4148    
     69100   211.94599     -931.31618      1174.5422      4330.2285    
     69110   207.54823     -931.29303      2385.8621      4325.1424    
     69120   185.91165     -930.77606      3147.6486      4322.2616    
     69130   198.99243     -931.21455      3032.7383      4322.258     
     69140   198.23383     -931.26631      2291.1131      4325.052     
     69150   179.44645     -930.80228      1195.0578      4329.982     
     69160   197.59915     -931.34919     -248.82095      4336.025     
     69170   204.8627      -931.58547     -1623.5534      4341.8625    
     69180   184.55474     -931.04766     -2565.0153      4346.2227    
     69190   191.66568     -931.26575     -3028.424       4348.2065    
     69200   202.945       -931.60079     -2865.6993      4347.3802    
     69210   188.27123     -931.21581     -2038.8744      4343.8997    
     69220   186.7026      -931.18835     -809.86292      4338.5265    
     69230   200.29784     -931.57268      637.46907      4332.4106    
     69240   199.4305      -931.54809      2048.6061      4326.8969    
     69250   204.74182     -931.69527      2895.0643      4323.2613    
     69260   206.9166      -931.76182      3003.4369      4322.2807    
     69270   193.06129     -931.39017      2500.7332      4324.07      
     69280   178.93129     -931.00896      1480.5077      4328.1735    
     69290   170.20777     -930.76583      138.39472      4333.6585    
     69300   161.40529     -930.50089     -1169.8714      4339.2995    
     69310   180.47352     -930.98999     -2251.8482      4343.8733    
     69320   198.79994     -931.44146     -2746.5576      4346.3809    
     69330   193.99247     -931.24658     -2494.5617      4346.3609    
     69340   211.58062     -931.67368     -1842.2025      4344.0156    
     69350   225.0029      -931.98407     -922.72384      4339.9523    
     69360   198.16473     -931.18475      266.86552      4335.0448    
     69370   196.47862     -931.08754      1329.3992      4330.3793    
     69380   217.71435     -931.62246      2026.095       4326.9337    
     69390   201.59108     -931.125        2386.7982      4325.3662    
     69400   188.81457     -930.72944      2219.7281      4325.9982    
     69410   201.68688     -931.04491      1516.9311      4328.6768    
     69420   194.77261     -930.80647      572.72229      4332.7776    
     69430   194.49709     -930.74983     -510.0265       4337.4248    
     69440   206.57765     -931.03025     -1488.7931      4341.6187    
     69450   189.96747     -930.51318     -2038.4211      4344.4605    
     69460   196.72048     -930.64763     -2251.2328      4345.412     
     69470   224.23435     -931.35725     -2022.9538      4344.275     
     69480   211.77629     -930.96601     -1200.2413      4341.2789    
     69490   205.67944     -930.76268     -189.36453      4337.1647    
     69500   220.12166     -931.13366      702.73507      4332.8602    
     69510   203.31949     -930.64264      1546.6649      4329.2147    
     69520   200.19849     -930.53734      2122.1778      4327.0004    
     69530   219.87918     -931.0701       2230.8015      4326.7411    
     69540   217.96269     -931.01342      1875.6295      4328.5475    
     69550   223.52376     -931.1784       947.55468      4332.0817    
     69560   220.0649      -931.10471     -192.82198      4336.5109    
     69570   197.25573     -930.49827     -1151.7058      4340.7977    
     69580   200.15221     -930.60526     -1934.8344      4344.03      
     69590   207.67694     -930.84515     -2347.3796      4345.476     
     69600   189.81934     -930.38359     -2099.1539      4344.7654    
     69610   202.23701     -930.76425     -1442.1929      4342.1033    
     69620   223.61724     -931.40387     -534.67377      4338.0973    
     69630   203.11253     -930.89153      574.42654      4333.6035    
     69640   197.0327      -930.78582      1474.9444      4329.6296    
     69650   212.64837     -931.29985      1959.7871      4327.005     
     69660   203.29928     -931.14776      2117.7999      4326.1953    
     69670   188.14696     -930.85103      1844.717       4327.3438    
     69680   198.23074     -931.27319      1071.4347      4330.1936    
     69690   192.12302     -931.25532      166.40041      4334.0599    
     69700   180.40221     -931.06109     -711.14361      4338.1074    
     69710   191.99221     -931.48872     -1509.8286      4341.51      
     69720   197.83853     -931.73606     -1922.8517      4343.5355    
     69730   190.55259     -931.59486     -1876.4309      4343.7925    
     69740   198.23736     -931.85223     -1586.4244      4342.2978    
     69750   199.65842     -931.9254      -1019.5315      4339.327     
     69760   180.76728     -931.42285     -182.30615      4335.4138    
     69770   170.47509     -931.1436       687.66245      4331.3261    
     69780   176.92214     -931.31494      1420.8904      4327.868     
     69790   179.10287     -931.35629      1935.678       4325.7238    
     69800   184.41814     -931.4784       2056.7617      4325.3626    
     69810   180.1351      -931.32854      1809.5158      4326.9079    
     69820   179.16214     -931.26467      1179.0985      4330.1354    
     69830   194.56932     -931.64559      189.33839      4334.4633    
     69840   199.74725     -931.73393     -871.19729      4338.9907    
     69850   189.3782      -931.38917     -1739.0109      4342.7382    
     69860   196.34586     -931.52586     -2303.4228      4344.8848    
     69870   195.45528     -931.44376     -2285.9713      4344.9116    
     69880   183.63869     -931.06123     -1693.8775      4342.8271    
     69890   202.35624     -931.5239      -875.96109      4339.1549    
     69900   209.55797     -931.66165      109.46708      4334.6642    
     69910   189.01464     -931.03324      1168.2975      4330.2768    
     69920   191.00521     -931.03223      1949.6183      4326.958     
     69930   199.27884     -931.20253      2261.9323      4325.4271    
     69940   185.10988     -930.75242      2105.9861      4325.9837    
     69950   191.85774     -930.88508      1479.9995      4328.4885    
     69960   206.86482     -931.24201      593.71957      4332.3825    
     69970   198.592       -930.95338     -338.85005      4336.8591    
     69980   196.22875     -930.83237     -1246.1595      4341.0452    
     69990   206.94455     -931.07452     -1921.6411      4344.0971    
     70000   213.50759     -931.20647     -2165.5051      4345.3845    
     70010   217.56458     -931.28087     -1967.1109      4344.6668    
     70020   212.52076     -931.11541     -1358.393       4342.1232    
     70030   202.69343     -930.82518     -492.59856      4338.3132    
     70040   201.66786     -930.78134      390.07531      4334.0319    
     70050   195.05102     -930.58023      1214.6962      4330.1061    
     70060   198.69796     -930.66219      1844.7637      4327.2999    
     70070   215.00817     -931.09725      2133.6649      4326.1948    
     70080   210.07612     -930.95021      2029.2516      4327.0652    
     70090   202.38569     -930.73409      1463.7307      4329.8165    
     70100   217.55662     -931.157        537.55713      4333.9366    
     70110   220.09244     -931.23514     -490.97909      4338.5852    
     70120   211.86789     -931.02328     -1510.1084      4342.8015    
     70130   206.51414     -930.89932     -2305.5319      4345.6325    
     70140   190.74228     -930.49055     -2515.3493      4346.3463    
     70150   190.33029     -930.50863     -2134.2823      4344.7322    
     70160   215.64185     -931.24505     -1326.6479      4341.1294    
     70170   214.57688     -931.25913     -180.59281      4336.2941    
     70180   191.78638     -930.67264      996.95403      4331.2818    
     70190   197.28109     -930.87207      1868.1799      4327.1706    
     70200   196.59574     -930.90425      2436.3503      4324.7828    
     70210   187.13336     -930.69559      2559.3277      4324.6434    
     70220   203.62434     -931.21382      2062.9434      4326.8616    
     70230   217.55552     -931.67544      1136.9715      4331.0032    
     70240   211.68015     -931.59965     -34.411244      4336.2264    
     70250   208.63009     -931.61126     -1310.1787      4341.4425    
     70260   191.67924     -931.23561     -2323.5183      4345.4754    
     70270   183.06319     -931.08144     -2891.2176      4347.3669    
     70280   190.69461     -931.37274     -2842.1831      4346.5793    
     70290   184.9638      -931.286       -2029.3261      4343.1625    
     70300   176.0971      -931.09325     -716.9057       4337.8607    
     70310   191.93334     -931.57046      609.45666      4331.869     
     70320   180.91626     -931.28642      1897.0562      4326.4378    
     70330   170.70301     -931.00951      2822.6533      4322.7476    
     70340   193.27243     -931.63565      3032.7552      4321.6371    
     70350   193.15836     -931.63056      2657.962       4323.3253    
     70360   178.5929      -931.22234      1786.2437      4327.4841    
     70370   198.66788     -931.76966      414.17345      4333.3083    
     70380   201.16391     -931.82069     -1011.5417      4339.5584    
     70390   187.41039     -931.41753     -2211.6092      4344.9102    
     70400   197.84344     -931.68476     -3069.8899      4348.2245    
     70410   197.46891     -931.65493     -3239.5116      4348.7024    
     70420   178.04965     -931.10059     -2612.5549      4346.1807    
     70430   185.77301     -931.29744     -1523.6039      4341.2157    
     70440   191.35273     -931.42455     -78.878197      4334.8318    
     70450   181.4641      -931.11334      1498.6062      4328.3746    
     70460   181.96523     -931.08297      2745.2874      4323.2877    
     70470   195.45174     -931.40958      3338.8945      4320.7122    
     70480   194.41896     -931.33705      3255.8547      4321.2093    
     70490   194.07881     -931.29192      2429.9871      4324.7059    
     70500   191.01456     -931.17214      1086.1754      4330.4664    
     70510   191.43811     -931.14486     -453.25926      4337.2704    
     70520   206.42393     -931.51635     -1929.0206      4343.6913    
     70530   204.29182     -931.41468     -2954.5862      4348.3587    
     70540   183.85822     -930.81381     -3362.1287      4350.2998    
     70550   191.8839      -931.00953     -3222.3367      4349.1034    
     70560   204.1073      -931.32367     -2325.6411      4344.9146    
     70570   197.62773     -931.12009     -735.50947      4338.578     
     70580   201.43275     -931.19906      962.6668       4331.5484    
     70590   213.26834     -931.49889      2349.5016      4325.3906    
     70600   198.78458     -931.07279      3335.5663      4321.4001    
     70610   197.05536     -931.00919      3601.1414      4320.4721    
     70620   212.40605     -931.42843      2987.5297      4322.8485    
     70630   192.53513     -930.87482      1768.7072      4327.997     
     70640   186.00392     -930.68734      123.56168      4334.8036    
     70650   208.22391     -931.28742     -1573.6917      4341.7591    
     70660   198.50866     -930.99635     -2801.6997      4347.3023    
     70670   184.39099     -930.58519     -3467.5146      4350.2616    
     70680   201.06273     -931.0319      -3513.4358      4349.9928    
     70690   195.82144     -930.87295     -2664.0779      4346.4704    
     70700   189.59626     -930.68576     -1170.4395      4340.4761    
     70710   219.35582     -931.49068      523.12319      4333.3871    
     70720   219.90447     -931.48253      2232.8417      4326.7915    
     70730   207.68477     -931.12882      3381.9039      4322.2426    
     70740   217.4082      -931.39753      3606.5549      4320.7836    
     70750   209.10688     -931.18038      3109.0701      4322.649     
     70760   196.02851     -930.83851      1966.4881      4327.3917    
     70770   200.64396     -930.98624      311.51106      4333.9649    
     70780   191.62191     -930.74695     -1339.1035      4340.8667    
     70790   192.34605     -930.7705      -2655.1345      4346.5624    
     70800   211.38671     -931.30393     -3423.9505      4349.8106    
     70810   202.68485     -931.07765     -3394.0579      4349.8914    
     70820   188.11252     -930.69698     -2661.25        4346.8156    
     70830   193.61788     -930.87501     -1432.9892      4341.2591    
     70840   189.3842      -930.77654      186.54482      4334.3817    
     70850   195.89104     -930.96897      1789.6111      4327.6779    
     70860   212.51246     -931.44432      2982.2575      4322.619     
     70870   201.06225     -931.15256      3613.6252      4320.3093    
     70880   201.41627     -931.20469      3415.3588      4321.3169    
     70890   219.18715     -931.762        2383.411       4325.4653    
     70900   202.5319      -931.38018      937.60362      4331.8412    
     70910   186.55884     -931.01372     -711.60445      4339.1145    
     70920   209.11244     -931.7169      -2392.3321      4345.7433    
     70930   206.46959     -931.73057     -3546.4826      4350.1774    
     70940   173.45512     -930.89682     -3866.5877      4351.3326    
     70950   165.35982     -930.74202     -3400.5087      4348.8879    
     70960   168.96552     -930.89855     -2141.3763      4343.2875    
     70970   175.3786      -931.11331     -336.42705      4335.7096    
     70980   194.98522     -931.67667      1552.1423      4327.8242    
     70990   198.88957     -931.79378      3192.8466      4321.3807    
     71000   193.71834     -931.6583       4144.6452      4317.8725    
     71010   198.50479     -931.80644      4074.9736      4318.1572    
     71020   194.08891     -931.70526      3058.1183      4322.1847    
     71030   187.75441     -931.5476       1312.2434      4329.0379    
     71040   186.97951     -931.53135     -722.96078      4337.129     
     71050   170.69536     -931.06661     -2424.0893      4344.5979    
     71060   165.32276     -930.88983     -3516.7027      4349.8472    
     71070   190.23514     -931.54307     -3940.471       4351.8301    
     71080   203.4576      -931.86688     -3521.3762      4350.1502    
     71090   194.63527     -931.58084     -2292.9621      4345.2043    
     71100   204.4136      -931.8081      -683.18132      4338.1241    
     71110   192.09918     -931.41126      1098.3441      4330.4239    
     71120   173.4776      -930.832        2644.7798      4323.7453    
     71130   189.19546     -931.19622      3553.915       4319.4978    
     71140   203.89998     -931.52534      3783.2322      4318.5226    
     71150   186.58978     -930.97374      3326.0445      4321.0369    
     71160   195.29888     -931.15213      1995.3584      4326.6042    
     71170   205.91847     -931.37606      193.6129       4334.0277    
     71180   184.59244     -930.71255     -1510.2433      4341.6696    
     71190   186.93944     -930.70752     -2917.0952      4347.9313    
     71200   212.94361     -931.35872     -3739.4589      4351.4927    
     71210   210.04771     -931.22215     -3649.247       4351.5928    
     71220   204.10362     -931.02282     -2803.3876      4348.2983    
     71230   209.24378     -931.14153     -1456.9876      4342.3955    
     71240   204.9241      -931.00002      177.43387      4335.1502    
     71250   206.33507     -931.01698      1764.4702      4328.0796    
     71260   214.90148     -931.23566      3012.8513      4322.647     
     71270   195.73105     -930.69192      3735.1372      4320.0018    
     71280   194.17194     -930.64528      3573.575       4320.7826    
     71290   218.51549     -931.3241       2545.1501      4324.8449    
     71300   215.94873     -931.26235      1047.8835      4331.2736    
     71310   198.79972     -930.79659     -733.96169      4338.6862    
     71320   194.04749     -930.66784     -2478.499       4345.4298    
     71330   188.42706     -930.50877     -3545.2355      4349.9019    
     71340   192.17368     -930.61002     -3696.6547      4351.0986    
     71350   208.19521     -931.05714     -3062.7084      4348.8584    
     71360   206.37454     -931.01341     -1759.3499      4343.779     
     71370   210.62931     -931.13954     -133.50918      4337.0722    
     71380   222.57272     -931.48057      1460.5108      4330.249     
     71390   213.27751     -931.23878      2722.2435      4324.7831    
     71400   204.51524     -931.02077      3305.8701      4321.8214    
     71410   208.7418      -931.17522      3126.2314      4321.8974    
     71420   197.82835     -930.91805      2378.8291      4324.8622    
     71430   189.42944     -930.73025      1178.9525      4330.0324    
     71440   194.92623     -930.92254     -318.47622      4336.3022    
     71450   193.87562     -930.92669     -1703.6787      4342.2999    
     71460   193.15306     -930.93657     -2658.3958      4346.7389    
     71470   202.25452     -931.22372     -3060.9487      4348.7165    
     71480   205.15071     -931.34899     -2815.4121      4347.8549    
     71490   205.8795      -931.42689     -2012.5912      4344.3781    
     71500   198.22037     -931.27938     -824.51163      4339.0371    
     71510   194.3873      -931.23971      502.63375      4332.9377    
     71520   190.37175     -931.19504      1774.675       4327.3163    
     71530   183.18015     -931.06066      2693.9503      4323.3388    
     71540   188.6018      -931.27959      2997.3645      4321.8389    
     71550   192.80833     -931.47345      2697.1138      4323.1014    
     71560   182.36827     -931.26254      1883.293       4326.8583    
     71570   185.44311     -931.42089      605.2529       4332.3582    
     71580   198.73273     -931.86035     -848.59272      4338.4308    
     71590   184.14553     -931.51984     -2052.0447      4343.743     
     71600   176.65892     -931.36517     -2865.3445      4347.1608    
     71610   193.21746     -931.87678     -3143.6061      4347.917     
     71620   189.22196     -931.81941     -2650.8346      4345.7661    
     71630   175.57662     -931.48749     -1530.6731      4341.1633    
     71640   176.57519     -931.54798     -111.06977      4335.1452    
     71650   183.46328     -931.75655      1319.4773      4329.0312    
     71660   186.05796     -931.83457      2451.8674      4324.1388    
     71670   180.27037     -931.67359      3039.4648      4321.5045    
     71680   169.76224     -931.37583      2958.8405      4321.6656    
     71690   171.21456     -931.4005       2198.7958      4324.5475    
     71700   177.36224     -931.53795      1022.4581      4329.4688    
     71710   176.11118     -931.44667     -235.03361      4335.363     
     71720   185.44233     -931.62253     -1476.8795      4341.0554    
     71730   190.49633     -931.65022     -2461.9312      4345.3905    
     71740   189.48146     -931.49241     -2883.1563      4347.4551    
     71750   200.08692     -931.64871     -2657.4919      4346.8495    
     71760   206.16793     -931.68253     -1862.3274      4343.7801    
     71770   200.63786     -931.41535     -728.55693      4338.9826    
     71780   197.86663     -931.24963      460.62841      4333.5078    
     71790   200.28058     -931.2469       1498.6522      4328.4589    
     71800   189.00125     -930.88005      2324.8843      4324.8055    
     71810   181.73156     -930.63668      2712.4534      4323.2993    
     71820   192.38691     -930.8968       2460.1465      4324.2862    
     71830   205.60808     -931.23223      1690.8839      4327.5457    
     71840   201.58919     -931.09375      671.79682      4332.3887    
     71850   198.28749     -930.97721     -535.78164      4337.867     
     71860   201.19989     -931.03157     -1719.5934      4342.8608    
     71870   190.86504     -930.71728     -2486.7599      4346.2811    
     71880   192.16105     -930.72682     -2726.0058      4347.4014    
     71890   213.34345     -931.28959     -2400.512       4345.9923    
     71900   222.75792     -931.53225     -1488.5698      4342.3642    
     71910   217.28714     -931.37216     -248.66953      4337.3607    
     71920   212.19422     -931.22999      934.1707       4332.1213    
     71930   202.70125     -930.96945      1850.6733      4327.7424    
     71940   195.77897     -930.78178      2376.3162      4325.0721    
     71950   201.71942     -930.95426      2436.4432      4324.5941    
     71960   191.42274     -930.67749      2118.463       4326.3777    
     71970   190.23035     -930.65126      1301.5623      4330.1195    
     71980   212.95697     -931.28545      108.80149      4335.0702    
     71990   212.96976     -931.29007     -990.26127      4340.154     
     72000   196.92631     -930.85188     -1881.5521      4344.3407    
     72010   204.85992     -931.08233     -2586.0639      4346.7762    
     72020   201.60097     -931.00734     -2728.2447      4346.82      
     72030   187.4341      -930.63223     -2165.544       4344.3441    
     72040   198.0082      -930.94253     -1102.0165      4339.8613    
     72050   203.26213     -931.1004       291.81244      4334.3679    
     72060   209.50128     -931.28409      1575.0844      4329.1415    
     72070   219.8906      -931.59068      2387.8322      4325.356     
     72080   196.35904     -930.96586      2756.5855      4323.7768    
     72090   179.149       -930.51701      2571.1033      4324.7411    
     72100   206.87458     -931.31654      1728.1136      4328.0712    
     72110   213.73732     -931.54105      565.57594      4333.0176    
     72120   198.04261     -931.14157     -668.35705      4338.5149    
     72130   205.86365     -931.39611     -1826.94        4343.4102    
     72140   201.19569     -931.30908     -2547.1411      4346.6344    
     72150   181.00746     -930.79068     -2740.1087      4347.5042    
     72160   197.60528     -931.29573     -2562.0589      4345.8116    
     72170   196.54007     -931.31396     -1730.1301      4341.7511    
     72180   175.30419     -930.76463     -333.934        4336.1034    
     72190   184.60092     -931.05028      1077.947       4330.1397    
     72200   193.66379     -931.32083      2238.0324      4325.1675    
     72210   185.3901      -931.10553      2976.4492      4322.2602    
     72220   197.50973     -931.45759      3008.2745      4322.0836    
     72230   205.92003     -931.7121       2394.701       4324.6796    
     72240   189.18292     -931.27031      1364.3788      4329.506     
     72250   191.67891     -931.35735     -10.156783      4335.6107    
     72260   206.48724     -931.78        -1438.0359      4341.7304    
     72270   207.14501     -931.8105      -2552.3368      4346.5445    
     72280   202.68034     -931.70745     -3162.4913      4349.0014    
     72290   184.69879     -931.23614     -3100.1133      4348.5267    
     72300   173.37831     -930.94852     -2428.7477      4345.1672    
     72310   178.04408     -931.09682     -1292.6263      4339.5456    
     72320   170.13621     -930.87942      258.01883      4332.7374    
     72330   175.9008      -931.02144      1878.8399      4326.1765    
     72340   199.64879     -931.64445      3103.7162      4321.3438    
     72350   200.54957     -931.62592      3677.7402      4319.3636    
     72360   185.65691     -931.17116      3435.4853      4320.7616    
     72370   195.75543     -931.40636      2351.0068      4325.3194    
     72380   204.22135     -931.58096      791.5299       4332.0703    
     72390   200.22943     -931.39787     -893.17191      4339.5903    
     72400   199.99682     -931.30954     -2438.5138      4346.312     
     72410   201.50683     -931.2653      -3502.3326      4350.7909    
     72420   201.82605     -931.1923      -3808.9656      4352.0256    
     72430   201.08824     -931.0998      -3302.4965      4349.7186    
     72440   198.91374     -930.97415     -2100.0705      4344.3387    
     72450   192.27594     -930.72502     -397.13288      4337.015     
     72460   194.45146     -930.71426      1434.6998      4329.3288    
     72470   206.5827      -930.9741       2981.2719      4322.9693    
     72480   219.973       -931.27546      3866.2648      4319.3493    
     72490   206.75863     -930.85872      3914.3343      4319.2812    
     72500   201.154       -930.67331      3031.1522      4322.8064    
     72510   201.90708     -930.66979      1516.5079      4329.1419    
     72520   206.0785      -930.75897     -286.71228      4336.9095    
     72530   209.73799     -930.83029     -1996.6537      4344.4487    
     72540   212.32782     -930.87484     -3266.2373      4350.1641    
     72550   212.46468     -930.86202     -3838.1242      4352.8591    
     72560   219.9488      -931.07033     -3643.7369      4351.982     
     72570   216.88234     -931.00265     -2674.0925      4347.7155    
     72580   206.09637     -930.72816     -1139.7711      4340.9659    
     72590   209.32437     -930.84123      600.9816       4333.1607    
     72600   203.25403     -930.6919       2297.5144      4325.9236    
     72610   194.15627     -930.45512      3545.3505      4320.8097    
     72620   206.08504     -930.80698      3950.6438      4318.9457    
     72630   214.59607     -931.07657      3547.9809      4320.7164    
     72640   218.75528     -931.24014      2428.7858      4325.7638    
     72650   219.85073     -931.32963      717.95479      4333.0658    
     72660   202.90285     -930.91774     -1194.9887      4341.059     
     72670   196.20958     -930.78198     -2874.9807      4347.973     
     72680   205.63374     -931.09517     -3944.487       4352.2348    
     72690   190.95624     -930.7455      -4101.3627      4352.8408    
     72700   177.11147     -930.41664     -3376.3149      4349.6312    
     72710   195.29416     -930.97203     -1957.5679      4343.2804    
     72720   203.27146     -931.2367       18.404434      4335.1327    
     72730   193.16845     -930.9859       2083.7275      4327.0201    
     72740   210.93966     -931.50282      3567.1509      4320.8219    
     72750   226.05842     -931.9586       4254.5566      4317.9029    
     72760   206.57119     -931.4716       4057.7623      4318.8947    
     72770   191.74375     -931.11855      2844.9786      4323.6081    
     72780   191.06568     -931.14933      946.40777      4330.9521    
     72790   187.87826     -931.09218     -1060.845       4339.2062    
     72800   187.65983     -931.09999     -2775.7465      4346.5102    
     72810   188.13467     -931.11734     -3856.7976      4351.2581    
     72820   187.11203     -931.09201     -4054.03        4352.4317    
     72830   192.60542     -931.25007     -3374.4331      4349.8358    
     72840   200.24967     -931.46848     -2029.4645      4344.1011    
     72850   195.85988     -931.34791     -305.15877      4336.4881    
     72860   190.25842     -931.18426      1459.1477      4328.6026    
     72870   191.23949     -931.19436      2971.0305      4322.0781    
     72880   191.90276     -931.19386      3945.1465      4318.2993    
     72890   191.66154     -931.1738       4079.1413      4318.1447    
     72900   199.89422     -931.3972       3247.9625      4321.7305    
     72910   196.97115     -931.31281      1723.2493      4328.3179    
     72920   203.44256     -931.4849      -246.37447      4336.51      
     72930   206.3315      -931.55045     -2192.7918      4344.4974    
     72940   186.27943     -930.97579     -3553.6774      4350.4812    
     72950   185.02905     -930.92367     -4152.9704      4353.1704    
     72960   207.60548     -931.53801     -3956.241       4351.9877    
     72970   198.19796     -931.27138     -2825.946       4347.1364    
     72980   181.84246     -930.81079     -1050.5858      4339.6734    
     72990   195.72512     -931.17643      869.37579      4331.245     
     73000   197.9595      -931.20463      2678.2406      4323.6427    
     73010   186.93238     -930.86062      3991.3047      4318.5231    
     73020   201.22179     -931.22285      4361.8413      4317.0637    
     73030   218.52253     -931.67687      3769.3758      4319.607     
     73040   209.15728     -931.40265      2408.7881      4325.6258    
     73050   193.17454     -930.94684      454.74729      4333.8746    
     73060   189.18581     -930.81185     -1709.6123      4342.5563    
     73070   187.56824     -930.72806     -3455.1205      4349.6775    
     73080   195.83314     -930.9139      -4365.5008      4353.6043    
     73090   202.83113     -931.06879     -4237.6216      4353.4786    
     73100   203.06308     -931.04356     -3139.2069      4349.417     
     73110   206.14097     -931.09803     -1422.1465      4342.4443    
     73120   214.79896     -931.30156      515.32842      4334.1646    
     73130   211.8228      -931.17722      2365.1073      4326.3866    
     73140   211.788       -931.13753      3635.9256      4320.7981    
     73150   216.86346     -931.25078      4036.3193      4318.5511    
     73160   205.2401      -930.9157       3636.755       4320.0196    
     73170   194.65072     -930.61812      2496.7         4324.8369    
     73180   198.63632     -930.72089      818.30282      4331.9626    
     73190   201.44562     -930.77954     -997.22984      4339.8629    
     73200   198.28942     -930.66234     -2599.8017      4346.8553    
     73210   201.47652     -930.71693     -3710.3023      4351.4361    
     73220   196.3103      -930.54062     -3931.4783      4352.5784    
     73230   199.01557     -930.58471     -3243.7145      4350.0715    
     73240   222.7528      -931.20817     -1934.224       4344.5507    
     73250   227.79745     -931.30788     -184.65312      4337.2562    
     73260   220.31922     -931.06214      1585.8129      4329.8118    
     73270   216.77304     -930.92961      2936.6494      4323.8427    
     73280   211.21014     -930.74925      3687.7795      4320.5908    
     73290   213.8722      -930.80951      3677.5749      4320.7356    
     73300   222.1756      -931.04055      2803.3844      4324.2564    
     73310   213.28579     -930.80592      1322.8124      4330.3643    
     73320   199.12096     -930.42688     -372.8364       4337.7117    
     73330   206.28803     -930.63666     -2020.1622      4344.7241    
     73340   209.71039     -930.74539     -3262.6186      4349.8692    
     73350   191.51809     -930.26129     -3784.8733      4351.989     
     73360   199.46355     -930.51146     -3553.2563      4350.5839    
     73370   217.78539     -931.06138     -2441.4687      4345.8924    
     73380   206.89932     -930.80841     -630.75929      4338.9668    
     73390   199.02464     -930.63543      1200.6383      4331.4693    
     73400   225.30184     -931.41504      2584.9455      4325.0842    
     73410   225.88756     -931.50251      3517.0232      4321.104     
     73420   196.45085     -930.76886      3742.3352      4320.3683    
     73430   197.98664     -930.89932      2979.383       4323.056     
     73440   202.82559     -931.1231       1606.6618      4328.4931    
     73450   199.04566     -931.09993     -19.951195      4335.4287    
     73460   200.25856     -931.20368     -1632.3111      4342.3576    
     73470   198.98166     -931.22922     -2855.6421      4347.7862    
     73480   194.48831     -931.15976     -3464.0689      4350.5678    
     73490   197.58791     -931.30088     -3408.2312      4350.1243    
     73500   192.09162     -931.20227     -2626.3583      4346.5183    
     73510   187.86106     -931.12969     -1243.1104      4340.4904    
     73520   197.35543     -931.42687      429.48193      4333.3319    
     73530   188.15096     -931.19171      2073.3463      4326.5983    
     73540   183.45484     -931.07095      3174.9674      4321.7829    
     73550   192.8295      -931.33806      3489.3659      4319.8851    
     73560   188.85435     -931.23477      3165.6817      4321.2065    
     73570   193.02315     -931.35758      2219.7751      4325.4446    
     73580   198.47191     -931.51102      785.07604      4331.7322    
     73590   192.33967     -931.33462     -805.52709      4338.756     
     73600   191.91072     -931.30736     -2214.6508      4345.0456    
     73610   203.1464      -931.59959     -3195.6526      4349.2822    
     73620   198.71877     -931.46038     -3493.5625      4350.5528    
     73630   185.6207      -931.08581     -3029.4894      4348.5799    
     73640   188.27646     -931.14587     -1917.3027      4343.8013    
     73650   205.02059     -931.587       -418.5978       4337.2584    
     73660   208.65704     -931.65544      1181.2489      4330.3511    
     73670   192.16202     -931.16151      2504.706       4324.5522    
     73680   185.10153     -930.92697      3207.175       4321.064     
     73690   187.82205     -930.95935      3261.9679      4320.5324    
     73700   176.54368     -930.59653      2745.9825      4323.0124    
     73710   185.30195     -930.77855      1618.8937      4328.0187    
     73720   208.96334     -931.3507       159.69375      4334.526     
     73730   210.5654      -931.29527     -1224.4352      4341.2012    
     73740   206.58361     -931.08652     -2359.0598      4346.7501    
     73750   215.71805     -931.2476      -3122.7485      4350.1022    
     73760   211.47332     -931.05032     -3275.9067      4350.5511    
     73770   212.61441     -931.02184     -2764.5607      4347.9553    
     73780   216.00176     -931.06905     -1589.7419      4342.809     
     73790   205.21146     -930.73119      9.4863496      4336.2143    
     73800   206.93613     -930.7439       1542.6394      4329.6436    
     73810   216.49556     -930.97772      2707.1427      4324.5103    
     73820   209.30705     -930.75765      3342.1872      4321.8855    
     73830   206.21794     -930.66547      3211.5761      4322.3341    
     73840   203.74799     -930.59977      2327.3338      4325.7336    
     73850   195.13271     -930.36451      957.83647      4331.2834    
     73860   197.4091      -930.42583     -560.83791      4337.7304    
     73870   205.99729     -930.65642     -1852.0246      4343.6767    
     73880   216.126       -930.93181     -2688.1592      4347.9177    
     73890   228.13502     -931.27273     -3027.2618      4349.6589    
     73900   219.14145     -931.04825     -2755.2438      4348.5882    
     73910   205.9328      -930.71536     -1905.6411      4344.9651    
     73920   217.38566     -931.06935     -718.71898      4339.5801    
     73930   217.19785     -931.1012       663.60824      4333.5513    
     73940   205.1922      -930.8017       1919.8822      4328.1553    
     73950   213.9044      -931.07748      2638.2888      4324.5305    
     73960   205.62459     -930.88581      2809.9807      4323.3434    
     73970   183.23639     -930.29859      2474.9922      4324.7544    
     73980   196.2183      -930.68694      1582.1904      4328.4438    
     73990   210.96955     -931.12006      406.0379       4333.6038    
     74000   202.87224     -930.91585     -788.41532      4339.1545    
     74010   204.85247     -930.98819     -1844.3221      4343.9814    
     74020   220.53618     -931.44482     -2520.0345      4347.1031    
     74030   212.17534     -931.24385     -2658.7567      4347.8912    
     74040   196.59391     -930.84761     -2392.158       4346.2003    
     74050   194.44098     -930.82258     -1699.1119      4342.2889    
     74060   193.76834     -930.83206     -477.44329      4336.8288    
     74070   194.86257     -930.88126      1001.2823      4330.9551    
     74080   196.12671     -930.92742      2265.9117      4326.0187    
     74090   200.97558     -931.07063      2958.7504      4323.1714    
     74100   218.11808     -931.56264      2940.3537      4323.0438    
     74110   215.08537     -931.50766      2363.1771      4325.6319    
     74120   192.34483     -930.91014      1317.0282      4330.4073    
     74130   194.88526     -931.00802     -161.82873      4336.3951    
     74140   204.91762     -931.30789     -1635.5892      4342.2426    
     74150   187.76031     -930.84749     -2593.0148      4346.6004    
     74160   199.55903     -931.19041     -3044.9521      4348.5511    
     74170   216.05928     -931.67175     -2877.3718      4347.6741    
     74180   190.74144     -930.99861     -2018.3461      4344.1386    
     74190   182.9789      -930.80804     -834.52319      4338.7305    
     74200   196.67344     -931.20426      497.0073       4332.5594    
     74210   188.97887     -930.99691      1924.9776      4326.8798    
     74220   194.5365      -931.15241      2939.7195      4322.9829    
     74230   208.26889     -931.53807      3184.7575      4321.7826    
     74240   189.18871     -931.01858      2776.4959      4323.518     
     74250   185.95845     -930.93887      1746.1924      4327.8114    
     74260   205.96017     -931.49797      341.6089       4333.7245    
     74270   198.00308     -931.27402     -1014.3823      4339.9802    
     74280   196.92725     -931.23753     -2223.8009      4345.303     
     74290   207.43224     -931.52184     -2996.8806      4348.5685    
     74300   202.75816     -931.39037     -3059.7274      4349.0621    
     74310   201.55444     -931.36319     -2550.7884      4346.709     
     74320   198.87083     -931.29838     -1591.2548      4341.986     
     74330   187.18731     -930.97965     -270.15742      4335.8011    
     74340   188.41315     -931.00931      1135.1386      4329.3804    
     74350   186.21842     -930.93221      2406.7069      4324.0263    
     74360   174.03744     -930.56802      3320.9306      4320.9075    
     74370   188.88722     -930.9469       3464.1863      4320.8382    
     74380   217.62207     -931.70373      2724.2591      4323.9441    
     74390   214.82123     -931.58556      1449.5793      4329.5732    
     74400   204.95099     -931.27447     -130.78095      4336.5578    
     74410   211.17973     -931.40729     -1793.8359      4343.4305    
     74420   200.06103     -931.05666     -3045.8446      4348.6594    
     74430   189.37725     -930.72232     -3643.3777      4351.0674    
     74440   196.42873     -930.88311     -3484.9817      4350.0874    
     74450   191.6367      -930.71483     -2460.0096      4345.8823    
     74460   191.51633     -930.67094     -874.25347      4339.4051    
     74470   216.25915     -931.30539      799.32372      4332.1212    
     74480   216.46854     -931.2532       2382.801       4325.5964    
     74490   205.19179     -930.89048      3511.9295      4321.2811    
     74500   225.97326     -931.43043      3735.2273      4320.1829    
     74510   216.15617     -931.13758      3192.6146      4322.5252    
     74520   190.98824     -930.43133      1967.197       4327.8143    
     74530   205.99579     -930.83748      148.17715      4334.9174    
     74540   211.36048     -930.96791     -1637.8598      4342.1843    
     74550   184.40827     -930.19823     -2861.321       4347.971     
     74560   197.53411     -930.54078     -3549.0965      4351.1016    
     74570   221.10094     -931.17622     -3497.4344      4350.9344    
     74580   211.68486     -930.90825     -2615.2917      4347.527     
     74590   212.52853     -930.93504     -1289.5799      4341.6865    
     74600   213.46178     -930.96696      265.17435      4334.6582    
     74610   200.76047     -930.61924      1841.5166      4327.8959    
     74620   207.89569     -930.82341      2984.0599      4322.8361    
     74630   213.33072     -930.98939      3535.544       4320.53      
     74640   208.7222      -930.89128      3449.1605      4321.4871    
     74650   219.61267     -931.24072      2554.8628      4325.6151    
     74660   215.99948     -931.20281      1039.0686      4332.1047    
     74670   196.41604     -930.72242     -730.20249      4339.5742    
     74680   208.8365      -931.12947     -2496.3374      4346.3748    
     74690   210.97336     -931.26185     -3687.53        4350.8766    
     74700   182.73019     -930.5548      -3913.5913      4351.9725    
     74710   188.67484     -930.79614     -3365.7372      4349.423     
     74720   201.84747     -931.24276     -2122.3582      4343.7468    
     74730   177.29507     -930.62886     -266.28444      4336.128     
     74740   182.11845     -930.80687      1583.9596      4328.2705    
     74750   213.11499     -931.70392      3047.2456      4321.8806    
     74760   200.3284      -931.3881       4034.7402      4318.3163    
     74770   188.91121     -931.11259      4118.3401      4318.4548    
     74780   212.24128     -931.8089       3145.144       4322.3632    
     74790   212.15716     -931.86052      1510.2714      4329.18      
     74800   194.41263     -931.41435     -468.3302       4337.4103    
     74810   191.81044     -931.37393     -2419.9967      4345.2233    
     74820   180.73278     -931.08504     -3753.1763      4350.8169    
     74830   178.39352     -931.03245     -4233.3661      4352.9315    
     74840   192.53183     -931.43845     -3822.9981      4351.106     
     74850   188.25735     -931.33225     -2538.0406      4345.7354    
     74860   187.20817     -931.30764     -751.75753      4338.0164    
     74870   189.70108     -931.36666      1199.0553      4329.6197    
     74880   177.81203     -931.01126      2958.6204      4322.3533    
     74890   182.87664     -931.11862      4003.9466      4317.8107    
     74900   198.97459     -931.53183      4168.5271      4316.9447    
     74910   196.80583     -931.44435      3537.0458      4319.9149    
     74920   200.18997     -931.51645      2126.3275      4326.1408    
     74930   205.29922     -931.63313      228.07055      4334.3386    
     74940   185.16873     -931.041       -1655.9652      4342.7755    
     74950   193.03846     -931.21924     -3295.6541      4349.6834    
     74960   205.67601     -931.52806     -4258.9735      4353.5341    
     74970   185.63814     -930.94073     -4194.5177      4353.4339    
     74980   189.14657     -931.01669     -3252.7095      4349.4304    
     74990   213.02845     -931.65774     -1647.9288      4342.411     
     75000   193.69186     -931.09523      412.02         4333.8963    
     75010   191.54604     -931.00523      2259.318       4325.7748    
     75020   210.54911     -931.49934      3576.8144      4319.7491    
     75030   190.06685     -930.90494      4287.0466      4317.0345    
     75040   183.44756     -930.70709      3984.9245      4318.2471    
     75050   201.71666     -931.20527      2752.091       4323.1127    
     75060   191.79749     -930.91892      1127.5482      4330.5384    
     75070   204.48618     -931.25571     -786.1404       4339.0134    
     75080   218.54876     -931.62662     -2634.7212      4346.7658    
     75090   186.0135      -930.70673     -3871.1514      4352.0866    
     75100   180.73038     -930.54797     -4344.804       4353.8009    
     75110   205.39255     -931.22537     -3827.182       4351.477     
     75120   200.71461     -931.09237     -2276.8767      4345.6233    
     75130   207.20795     -931.26845     -321.70046      4337.6704    
     75140   227.56913     -931.82726      1550.1751      4329.4346    
     75150   208.46234     -931.29376      3169.1046      4322.6651    
     75160   201.48064     -931.10428      4010.3394      4318.8179    
     75170   204.81899     -931.21194      3907.1353      4318.6516    
     75180   179.09874     -930.51719      3074.1423      4322.0847    
     75190   183.09498     -930.64109      1547.9124      4328.3439    
     75200   210.73329     -931.41002     -335.67533      4336.0331    
     75210   190.37838     -930.83696     -1923.5645      4343.442     
     75220   182.79676     -930.61212     -3147.5815      4349.0677    
     75230   213.49727     -931.44859     -3883.7772      4351.7525    
     75240   201.78063     -931.11578     -3646.6406      4350.8402    
     75250   179.92027     -930.50756     -2529.4306      4346.5545    
     75260   211.96158     -931.39099     -985.58182      4339.9265    
     75270   218.08744     -931.54789      881.79605      4332.4241    
     75280   194.86907     -930.88878      2568.9675      4325.7662    
     75290   216.83642     -931.48748      3429.8659      4321.4683    
     75300   221.81223     -931.62683      3599.7429      4320.3385    
     75310   195.49647     -930.91377      3112.4217      4322.5299    
     75320   193.75297     -930.88827      1827.1         4327.5723    
     75330   198.20173     -931.03009      131.52666      4334.3008    
     75340   189.79059     -930.80642     -1482.2307      4341.1661    
     75350   194.07536     -930.92922     -2725.368       4346.665     
     75360   196.30098     -930.99467     -3298.207       4349.6431    
     75370   190.28        -930.83476     -3204.6351      4349.5546    
     75380   198.3393      -931.0693      -2596.31        4346.4784    
     75390   201.62573     -931.17149     -1352.1028      4341.0146    
     75400   200.89972     -931.15855      333.60832      4334.3352    
     75410   211.78908     -931.46544      1876.2382      4327.9828    
     75420   206.5988      -931.33011      2930.166       4323.3739    
     75430   192.9357      -930.96673      3324.0187      4321.4708    
     75440   203.34902     -931.28011      2939.7371      4322.621     
     75450   203.59223     -931.31935      2009.5777      4326.4834    
     75460   181.34673     -930.73305      768.68966      4332.2106    
     75470   189.41107     -930.97874     -743.82312      4338.6416    
     75480   210.97724     -931.59434     -2135.7606      4344.3845    
     75490   199.13683     -931.28551     -2939.4454      4348.1617    
     75500   192.97026     -931.13973     -3175.9819      4349.2042    
     75510   200.74393     -931.38727     -2832.0823      4347.2908    
     75520   193.55837     -931.22278     -1841.5261      4342.7632    
     75530   186.2835      -931.05071     -425.13011      4336.5506    
     75540   190.8062      -931.19651      1115.4126      4329.9706    
     75550   188.59046     -931.14537      2540.5423      4324.4538    
     75560   193.93145     -931.30042      3379.1652      4321.2865    
     75570   205.06938     -931.62131      3341.932       4321.2185    
     75580   195.44369     -931.37256      2566.897       4324.2229    
     75590   183.82654     -931.06656      1271.6326      4329.5947    
     75600   193.36146     -931.33871     -302.63361      4336.1419    
     75610   188.06968     -931.1873      -1749.2545      4342.4207    
     75620   182.69298     -931.02464     -2825.4799      4347.0805    
     75630   195.57933     -931.36405     -3280.7635      4349.1187    
     75640   201.14891     -931.49974     -2909.5713      4348.1227    
     75650   203.98448     -931.56156     -1950.0685      4344.4299    
     75660   207.11132     -931.63077     -736.73512      4338.9303    
     75670   198.15554     -931.36102      600.09661      4332.7681    
     75680   191.6259      -931.15275      1878.1247      4327.1879    
     75690   190.16782     -931.07828      2802.2236      4323.3591    
     75700   185.23522     -930.90227      3067.6961      4322.1118    
     75710   191.92294     -931.04421      2595.3945      4323.6818    
     75720   201.39752     -931.25524      1620.3863      4327.6457    
     75730   187.02257     -930.7968       462.18414      4333.1217    
     75740   190.84992     -930.83489     -806.38627      4339.0281    
     75750   209.40629     -931.26709     -1932.6016      4344.1905    
     75760   213.10649     -931.2842      -2617.1362      4347.5675    
     75770   213.86102     -931.23129     -2800.2945      4348.5124    
     75780   212.82464     -931.14272     -2478.4176      4346.8521    
     75790   196.2666      -930.63485     -1613.9412      4342.903     
     75800   198.30833     -930.64659     -419.66157      4337.4708    
     75810   213.46329     -931.0178       896.4855       4331.6723    
     75820   215.34143     -931.02251      2099.9569      4326.7263    
     75830   211.07321     -930.86712      2897.6106      4323.7315    
     75840   213.93073     -930.92249      3045.9341      4323.4075    
     75850   213.64635     -930.90383      2441.0233      4325.8808    
     75860   204.3829      -930.64445      1235.417       4330.6002    
     75870   199.24604     -930.49933     -202.499        4336.4692    
     75880   208.97361     -930.76322     -1507.4194      4342.1667    
     75890   217.0448      -930.98415     -2454.9752      4346.476     
     75900   201.8674      -930.56837     -2855.128       4348.5132    
     75910   195.27969     -930.39709     -2692.0058      4347.8977    
     75920   214.93686     -930.9596      -2023.1695      4344.782     
     75930   222.52509     -931.19626     -890.43837      4339.8042    
     75940   207.38697     -930.80965      492.59893      4334.0246    
     75950   210.58084     -930.93663      1688.9514      4328.7093    
     75960   214.7466      -931.10235      2527.4777      4324.9646    
     75970   198.06778     -930.70051      2925.3362      4323.565     
     75980   205.09199     -930.96962      2576.4787      4324.8492    
     75990   211.56902     -931.24097      1620.7403      4328.5056    
     76000   197.3214      -930.94625      398.51523      4333.6705    
     76010   186.957       -930.75343     -852.87373      4339.218     
     76020   198.38181     -931.16208     -1951.7754      4343.9814    
     76030   204.29686     -931.4201      -2620.3465      4346.9429    
     76040   205.05676     -931.53686     -2735.7372      4347.4751    
     76050   200.9896      -931.51683     -2263.153       4345.4722    
     76060   193.00024     -931.37433     -1351.8369      4341.3738    
     76070   188.07509     -931.29745     -259.89561      4336.0248    
     76080   177.20775     -931.03191      900.06957      4330.4504    
     76090   172.8679      -930.92549      1962.175       4325.7266    
     76100   182.48982     -931.19249      2680.3762      4322.8237    
     76110   187.32451     -931.32094      2897.732       4322.3962    
     76120   183.15517     -931.19749      2534.0756      4324.6411    
     76130   200.33992     -931.66526      1519.206       4329.2152    
     76140   213.20754     -932.0113       115.72086      4335.1965    
     76150   199.87087     -931.62994     -1302.8791      4341.3009    
     76160   198.10515     -931.5694      -2507.9114      4346.204     
     76170   200.66359     -931.63005     -3166.8002      4348.7878    
     76180   186.83701     -931.2397      -3088.504       4348.4387    
     76190   178.58219     -931.00362     -2353.1681      4345.2242    
     76200   186.84726     -931.21824     -1135.2334      4339.8318    
     76210   187.54081     -931.20976      347.45778      4333.4033    
     76220   187.63909     -931.17362      1721.2555      4327.3058    
     76230   185.84324     -931.07628      2756.4534      4322.8072    
     76240   182.55769     -930.93351      3282.6471      4320.8569    
     76250   201.17509     -931.39721      3092.7901      4321.9247    
     76260   209.95078     -931.58756      2232.3464      4325.8413    
     76270   192.33658     -931.04982      868.7868       4331.8237    
     76280   191.78459     -930.98342     -751.48785      4338.6176    
     76290   203.00506     -931.23431     -2142.7222      4344.7379    
     76300   203.06585     -931.17467     -2976.7915      4348.8912    
     76310   207.08792     -931.23366     -3244.9547      4350.2781    
     76320   211.96816     -931.32728     -2885.0912      4348.6466    
     76330   213.55279     -931.34054     -1916.5437      4344.3401    
     76340   213.97558     -931.32951     -568.40467      4338.2627    
     76350   195.35917     -930.79179      906.65201      4331.6733    
     76360   182.00701     -930.39556      2158.5067      4325.9309    
     76370   199.56008     -930.85192      2933.8301      4322.1816    
     76380   198.03994     -930.77801      3276.5998      4321.1521    
     76390   193.12058     -930.61549      2964.2947      4323.1415    
     76400   214.90255     -931.19645      1893.1563      4327.854     
     76410   217.07561     -931.23443      426.55844      4334.3279    
     76420   195.52794     -930.61545     -1119.8212      4341.2174    
     76430   209.18423     -930.97182     -2584.3467      4347.0712    
     76440   218.51609     -931.21119     -3435.8295      4350.542     
     76450   195.93603     -930.57631     -3396.0684      4350.8386    
     76460   206.57179     -930.87277     -2763.5579      4347.9672    
     76470   219.39125     -931.23506     -1571.4446      4342.5323    
     76480   201.60091     -930.75012      99.175003      4335.6655    
     76490   206.39919     -930.8907       1733.0354      4328.9012    
     76500   218.36178     -931.23378      2949.377       4323.7422    
     76510   206.95353     -930.94209      3498.9852      4321.3011    
     76520   203.53723     -930.88924      3214.8706      4322.072     
     76530   211.39828     -931.16937      2279.6455      4325.808     
     76540   199.19909     -930.90756      964.11312      4331.6667    
     76550   195.63463     -930.89352     -681.13529      4338.4214    
     76560   192.44965     -930.89519     -2230.2766      4344.5599    
     76570   189.3006      -930.90146     -3212.3117      4348.6508    
     76580   199.27173     -931.28227     -3467.7977      4349.7661    
     76590   192.32837     -931.20167     -2898.6914      4347.6682    
     76600   174.87612     -930.8136      -1674.9333      4342.8868    
     76610   194.78749     -931.44583     -279.00477      4336.5436    
     76620   209.90673     -931.93808      1158.6929      4329.9517    
     76630   185.22234     -931.31016      2532.2387      4324.4563    
     76640   186.3062      -931.38184      3300.0882      4321.2908    
     76650   204.93581     -931.93974      3256.1647      4321.1517    
     76660   188.4709      -931.52173      2618.3051      4324.0209    
     76670   185.92734     -931.48215      1382.9525      4329.3067    
     76680   201.28091     -931.92933     -227.31837      4335.8778    
     76690   187.23758     -931.54944     -1720.1308      4342.2655    
     76700   169.64661     -931.05925     -2868.2581      4347.073     
     76710   177.2839      -931.26055     -3495.9448      4349.2168    
     76720   178.62345     -931.28145     -3272.0117      4348.1247    
     76730   172.55842     -931.09135     -2223.6304      4344.0068    
     76740   188.7473      -931.5079      -725.76151      4337.8289    
     76750   197.52918     -931.70383      938.53905      4330.9906    
     76760   187.07042     -931.35883      2379.4804      4325.0263    
     76770   188.97056     -931.3556       3233.4308      4321.2509    
     76780   192.63615     -931.40197      3469.4635      4320.457     
     76790   191.55056     -931.32128      3004.9473      4322.8592    
     76800   204.37123     -931.62973      1773.4722      4328.024     
     76810   204.45397     -931.58338      198.89484      4334.8462    
     76820   193.37008     -931.22744     -1361.2964      4341.8811    
     76830   203.89494     -931.47052     -2774.7358      4347.6608    
     76840   200.82859     -931.3399      -3605.9868      4350.8759    
     76850   181.01332     -930.75511     -3636.0436      4350.7462    
     76860   189.24078     -930.95476     -2947.8569      4347.2308    
     76870   195.37694     -931.09322     -1477.6763      4340.9954    
     76880   182.78323     -930.70507      485.26898      4333.4167    
     76890   200.57012     -931.15192      2197.0824      4326.2831    
     76900   213.85521     -931.47098      3357.6583      4321.1752    
     76910   200.97447     -931.07692      3838.2607      4319.1616    
     76920   198.87379     -930.99739      3474.8492      4320.6728    
     76930   196.19471     -930.90871      2418.7265      4325.3902    
     76940   193.67848     -930.82315      877.4721       4332.3555    
     76950   216.98564     -931.44883     -979.43412      4340.1435    
     76960   221.08563     -931.54184     -2633.6903      4347.0475    
     76970   190.26424     -930.6727      -3605.1608      4351.5345    
     76980   200.44754     -930.94956     -3948.3208      4352.6609    
     76990   211.91601     -931.27094     -3470.6577      4350.1134    
     77000   185.66326     -930.55023     -2081.3278      4344.3594    
     77010   191.65169     -930.71727     -249.34142      4336.6824    
     77020   221.20568     -931.52803      1633.4482      4328.7873    
     77030   209.3983      -931.19055      3258.7769      4322.4207    
     77040   194.42556     -930.77229      4050.1522      4319.0455    
     77050   206.5674      -931.11575      3810.6399      4319.3777    
     77060   210.20101     -931.23249      2844.1962      4323.2238    
     77070   201.92521     -931.02329      1351.0467      4329.7072    
     77080   196.6827      -930.89329     -464.15714      4337.4545    
     77090   192.30509     -930.77643     -2182.2095      4344.7952    
     77100   195.51234     -930.86399     -3407.1         4350.1299    
     77110   196.30393     -930.88572     -3857.1797      4352.3099    
     77120   201.81138     -931.0455      -3510.575       4350.9013    
     77130   207.1215      -931.20651     -2438.7234      4346.2296    
     77140   203.53616     -931.12263     -815.84832      4339.3056    
     77150   195.8153      -930.91772      1022.8777      4331.6443    
     77160   211.02        -931.34455      2566.6935      4324.934     
     77170   218.75903     -931.57221      3559.4125      4320.5959    
     77180   201.27334     -931.11635      3837.0822      4319.5382    
     77190   200.94663     -931.15389      3181.972       4321.998     
     77200   201.87696     -931.24082      1823.575       4327.3908    
     77210   185.64585     -930.85623      186.08987      4334.4909    
     77220   183.45508     -930.85902     -1488.5428      4341.783     
     77230   195.57495     -931.26428     -2895.5444      4347.7083    
     77240   191.78669     -931.24115     -3657.9802      4350.9574    
     77250   184.53212     -931.1315      -3646.3073      4350.8084    
     77260   192.01734     -931.44065     -2910.9678      4347.2662    
     77270   187.66415     -931.42114     -1527.4968      4341.0307    
     77280   180.89654     -931.31904      232.7025       4333.3962    
     77290   181.09475     -931.38879      2051.3738      4326.0014    
     77300   190.45449     -931.6983       3469.5886      4320.5108    
     77310   199.16767     -931.98829      4047.7214      4318.2059    
     77320   195.67725     -931.94422      3644.6304      4319.6096    
     77330   181.37716     -931.59623      2440.8075      4324.3666    
     77340   182.59366     -931.66571      682.20348      4331.3806    
     77350   180.5164      -931.62556     -1170.9677      4339.0474    
     77360   163.16967     -931.14105     -2653.6963      4345.6594    
     77370   173.34699     -931.40681     -3609.3045      4349.8148    
     77380   188.27616     -931.79729     -3771.8936      4350.6213    
     77390   181.00171     -931.57007     -3032.4319      4347.9329    
     77400   186.81614     -931.7026      -1722.9361      4342.4267    
     77410   196.93316     -931.94315     -127.89926      4335.3282    
     77420   182.34807     -931.48733      1556.7373      4328.1335    
     77430   178.503       -931.32246      2899.3794      4322.3861    
     77440   189.31554     -931.55801      3568.0096      4319.3068    
     77450   175.32476     -931.1061       3539.1624      4319.5142    
     77460   172.90132     -930.98067      2731.9099      4322.9737    
     77470   191.97808     -931.44508      1309.7626      4328.9526    
     77480   198.3529      -931.55016     -303.07667      4336.1634    
     77490   197.27659     -931.45128     -1793.6427      4343.1171    
     77500   203.80219     -931.57068     -2940.8509      4348.4179    
     77510   199.81346     -931.41055     -3483.1839      4350.9934    
     77520   194.19254     -931.22055     -3351.3925      4350.3277    
     77530   201.91713     -931.41162     -2568.5994      4346.5441    
     77540   196.97594     -931.25511     -1161.3148      4340.392     
     77550   183.9988      -930.87203      516.02427      4333.1807    
     77560   194.56188     -931.13418      1986.1036      4326.452     
     77570   203.83325     -931.35625      3093.6272      4321.5697    
     77580   190.91078     -930.96767      3699.8962      4319.5519    
     77590   190.33664     -930.92938      3444.1011      4320.9292    
     77600   204.67601     -931.30773      2288.6387      4325.4632    
     77610   195.01321     -931.01798      672.58608      4332.1205    
     77620   181.37153     -930.61095     -998.42139      4339.4243    
     77630   197.40759     -931.01677     -2446.8259      4345.8199    
     77640   209.90061     -931.31916     -3339.5992      4349.9589    
     77650   206.73867     -931.19647     -3518.8812      4350.9988    
     77660   202.14591     -931.04576     -2950.3461      4348.7695    
     77670   211.27397     -931.28208     -1749.9253      4343.8051    
     77680   214.46074     -931.35497     -175.83801      4337.2301    
     77690   206.44737     -931.11769      1367.2242      4330.5018    
     77700   207.16286     -931.12382      2534.5114      4325.041     
     77710   212.72983     -931.27025      3177.0289      4321.9239    
     77720   206.96347     -931.11375      3188.044       4321.736     
     77730   184.81673     -930.50931      2537.8549      4324.4857    
     77740   179.35127     -930.363        1279.91        4329.5742    
     77750   196.77597     -930.83943     -287.51898      4335.8532    
     77760   201.35276     -930.9483      -1653.0322      4341.8942    
     77770   190.10322     -930.61298     -2534.8061      4346.4279    
     77780   205.92309     -931.02796     -2935.4641      4348.6099    
     77790   224.10169     -931.51196     -2728.5766      4348.068     
     77800   211.28246     -931.14658     -1933.5787      4344.9982    
     77810   208.38072     -931.06426     -883.36372      4340.1271    
     77820   219.98967     -931.38824      320.42962      4334.4444    
     77830   204.8739      -930.97469      1611.8679      4329.0829    
     77840   191.3782      -930.60824      2519.7402      4325.212     
     77850   207.28837     -931.06295      2744.1348      4323.6516    
     77860   205.0502      -931.02254      2524.3319      4324.6336    
     77870   199.59558     -930.90162      1881.0505      4327.9562    
     77880   212.47338     -931.2975       710.81215      4333.0139    
     77890   206.46429     -931.17684     -740.09127      4338.7339    
     77900   183.07395     -930.5726      -2012.0716      4343.7882    
     77910   188.4979      -930.76592     -2797.6836      4346.9925    
     77920   202.43778     -931.20193     -2892.7635      4347.6139    
     77930   202.59865     -931.2654      -2373.3028      4345.5522    
     77940   198.33183     -931.21268     -1411.1714      4341.2854    
     77950   187.80154     -930.98236     -78.578935      4335.7237    
     77960   189.01507     -931.06865      1280.5321      4330.0964    
     77970   197.59291     -931.35497      2309.1577      4325.6506    
     77980   198.33431     -931.42449      2848.0823      4323.3354    
     77990   201.96235     -931.57953      2756.5016      4323.6414    
     78000   200.22578     -931.59072      2057.1464      4326.4889    
     78010   192.93762     -931.44608      928.89974      4331.2458    
     78020   188.66394     -931.37638     -413.54466      4336.8777    
     78030   187.6018      -931.38515     -1723.528       4342.1417    
     78040   181.66401     -931.24876     -2617.2477      4345.8284    
     78050   182.26437     -931.28743     -2860.3385      4347.1031    
     78060   188.111       -931.46825     -2466.9011      4345.7276    
     78070   191.38996     -931.5738      -1582.5822      4342.0613    
     78080   194.78421     -931.67719     -437.30038      4336.9241    
     78090   191.84611     -931.5977       727.25176      4331.379     
     78100   180.44602     -931.27512      1755.5788      4326.5086    
     78110   167.93081     -930.91086      2534.4589      4323.2674    
     78120   173.81277     -931.04621      2815.8331      4322.3607    
     78130   184.63017     -931.30562      2522.8862      4324.0502    
     78140   193.2395      -931.49158      1692.2089      4328.0728    
     78150   204.26005     -931.73238      472.7844       4333.6737    
     78160   216.71961     -932.00322     -896.76217      4339.7326    
     78170   200.67422     -931.48166     -2076.4607      4344.9878    
     78180   190.41662     -931.12562     -2940.3345      4348.3237    
     78190   204.30505     -931.43939     -3230.5898      4348.9315    
     78200   195.07656     -931.11344     -2633.8148      4346.5579    
     78210   186.85688     -930.82083     -1454.7849      4341.7391    
     78220   203.56982     -931.21428     -96.003595      4335.558     
     78230   196.02898     -930.92893      1373.2521      4329.2966    
     78240   187.80876     -930.62932      2585.9213      4324.3037    
     78250   207.44591     -931.10754      3157.5879      4321.6795    
     78260   198.46049     -930.80202      3149.7352      4321.9688    
     78270   184.83563     -930.38405      2502.8657      4325.1658    
     78280   206.56057     -930.95206      1236.4204      4330.6794    
     78290   221.15255     -931.32386     -270.26204      4337.3672    
     78300   218.00459     -931.21272     -1721.1107      4343.8392    
     78310   219.87075     -931.25312     -2892.0719      4348.7348    
     78320   205.52466     -930.85501     -3402.7513      4350.9652    
     78330   204.30875     -930.83075     -3221.4898      4350.0341    
     78340   220.8312      -931.30937     -2433.6099      4346.0974    
     78350   194.99683     -930.61482     -951.71775      4339.9147    
     78360   187.05388     -930.40689      726.95342      4332.8453    
     78370   219.73224     -931.31923      2112.3804      4326.4302    
     78380   210.68837     -931.07758      3161.5994      4321.9678    
     78390   182.8444      -930.31729      3600.9151      4320.4163    
     78400   216.07815     -931.25915      3089.4635      4322.1587    
     78410   218.05333     -931.3431       2058.518       4326.7717    
     78420   182.52102     -930.38535      708.00254      4333.3229    
     78430   203.99343     -931.00147     -1039.1769      4340.5426    
     78440   221.31652     -931.49962     -2585.4882      4346.836     
     78450   198.06785     -930.87706     -3457.5116      4350.7674    
     78460   194.25774     -930.79976     -3682.9941      4351.4864    
     78470   202.62664     -931.06737     -3131.8504      4348.7785    
     78480   193.24706     -930.84346     -1766.77        4343.1681    
     78490   199.0866      -931.0363      -50.435191      4335.9089    
     78500   209.45521     -931.34936      1626.0235      4328.5923    
     78510   205.49559     -931.26445      2976.5029      4322.7708    
     78520   205.34449     -931.29244      3681.8658      4319.6799    
     78530   198.97914     -931.15864      3616.6123      4319.9716    
     78540   187.72775     -930.89368      2789.9357      4323.5982    
     78550   197.80183     -931.21958      1310.5019      4329.8128    
     78560   204.46122     -931.44731     -409.45085      4337.2797    
     78570   197.45228     -931.29076     -2016.5889      4344.414     
     78580   197.86686     -931.33957     -3312.1587      4349.7014    
     78590   187.75961     -931.09966     -3902.6423      4351.93      
     78600   179.10334     -930.90205     -3597.5755      4350.5382    
     78610   194.26498     -931.36836     -2573.9531      4345.7895    
     78620   192.32785     -931.35836     -936.74473      4338.6482    
     78630   178.5538      -931.00767      991.24231      4330.6387    
     78640   187.49154     -931.27518      2675.2321      4323.531     
     78650   193.90055     -931.46887      3802.2278      4318.8773    
     78660   193.06643     -931.46786      4118.2818      4317.71      
     78670   200.73571     -931.71516      3485.5858      4320.3213    
     78680   196.39862     -931.63842      2123.9378      4326.1602    
     78690   185.04135     -931.36467      324.73096      4333.998     
     78700   191.86104     -931.58819     -1619.3495      4342.1775    
     78710   191.75839     -931.61593     -3211.4764      4348.9011    
     78720   179.84203     -931.31706     -4105.4076      4352.6705    
     78730   183.50619     -931.45691     -4199.0346      4352.6216    
     78740   188.34314     -931.63731     -3359.2201      4348.6638    
     78750   175.43286     -931.32201     -1664.1367      4341.5869    
     78760   171.36125     -931.23536      376.59015      4332.9558    
     78770   181.67275     -931.52774      2306.7252      4324.6601    
     78780   185.77483     -931.63413      3804.0804      4318.4842    
     78790   182.71374     -931.53834      4464.7824      4315.7905    
     78800   185.12044     -931.59646      4076.0485      4317.1822    
     78810   183.43841     -931.5384       2851.6372      4322.334     
     78820   183.29107     -931.51094      1070.7926      4330.1494    
     78830   193.31288     -931.74523     -963.41757      4339.0001    
     78840   193.05449     -931.67437     -2772.2419      4347.0113    
     78850   191.01171     -931.54595     -4010.7808      4352.4834    
     78860   194.27966     -931.56529     -4437.85        4354.2364    
     78870   180.2333      -931.10949     -3852.0335      4351.8639    
     78880   179.472       -931.02412     -2460.6018      4345.8984    
     78890   208.2286      -931.74317     -625.17036      4337.6311    
     78900   197.39094     -931.35079      1492.8759      4328.7926    
     78910   179.19195     -930.75839      3321.2857      4321.327     
     78920   209.73166     -931.52065      4264.8169      4316.8893    
     78930   199.27696     -931.1551       4411.1166      4316.3723    
     78940   177.60532     -930.50258      3627.2642      4319.9108    
     78950   211.23839     -931.38977      1905.0545      4326.7919    
     78960   210.66072     -931.3217      -44.865748      4335.489     
     78970   177.65652     -930.35578     -1851.3677      4344.2087    
     78980   209.49909     -931.18677     -3540.2889      4351.2272    
     78990   220.61937     -931.44418     -4482.5498      4354.9796    
     79000   185.78714     -930.44777     -4342.0218      4354.5771    
     79010   198.58384     -930.7869      -3381.5167      4350.1152    
     79020   219.44913     -931.34967     -1654.7522      4342.5057    
     79030   199.41022     -930.77429      603.84298      4333.3738    
     79040   201.72452     -930.813        2701.0595      4324.7927    
     79050   222.70442     -931.36816      4200.968       4318.6919    
     79060   225.34396     -931.43131      4817.7838      4316.4469    
     79070   224.03418     -931.41414      4217.803       4318.6077    
     79080   201.48367     -930.82466      2596.4234      4324.6504    
     79090   182.44397     -930.32632      440.22241      4333.1231    
     79100   192.63301     -930.62203     -1771.955       4342.0508    
     79110   194.71247     -930.6801      -3424.9969      4349.3932    
     79120   184.37133     -930.3901      -4210.0604      4353.5908    
     79130   203.66726     -930.92859     -4229.5362      4353.8651    
     79140   216.19936     -931.2903      -3379.8704      4350.1971    
     79150   200.61933     -930.87956     -1696.6711      4343.393     
     79160   204.7728      -931.01292      302.45403      4335.009     
     79170   224.99433     -931.59124      2140.1597      4326.8946    
     79180   210.0342      -931.20062      3628.5776      4320.7622    
     79190   200.69919     -930.97905      4288.0231      4317.956     
     79200   208.47137     -931.25058      3935.43        4319.0783    
     79210   203.76076     -931.1929       2775.959       4323.8313    
     79220   193.88462     -930.99563      1002.2251      4331.1659    
     79230   198.24115     -931.18967     -1062.7908      4339.4569    
     79240   192.34868     -931.09361     -2781.2951      4346.8142    
     79250   188.46572     -931.05        -3823.9172      4351.623     
     79260   196.19466     -931.33542     -4108.7184      4352.8815    
     79270   188.20931     -931.19176     -3556.8896      4350.3138    
     79280   175.91051     -930.92116     -2249.9743      4344.4352    
     79290   186.5535      -931.27405     -466.53128      4336.465     
     79300   187.60672     -931.3438       1541.0264      4328.0742    
     79310   183.93281     -931.26552      3284.5835      4321.1088    
     79320   198.67508     -931.69428      4246.2634      4317.1518    
     79330   202.98282     -931.84171      4299.4215      4317.09      
     79340   192.59534     -931.58895      3440.4613      4320.9831    
     79350   197.56141     -931.76264      1715.7265      4328.05      
     79360   191.40032     -931.61648     -384.96569      4336.7368    
     79370   179.75027     -931.30083     -2396.8262      4345.1101    
     79380   179.85359     -931.29774     -3927.1067      4351.288     
     79390   179.77176     -931.28428     -4529.7375      4353.8374    
     79400   183.08294     -931.36601     -4064.7203      4352.1806    
     79410   187.92346     -931.48723     -2741.5802      4346.7376    
     79420   188.63802     -931.48184     -896.99605      4338.742     
     79430   193.0331      -931.5594       1131.2503      4329.9185    
     79440   196.67723     -931.59661      2966.3815      4322.1452    
     79450   176.15832     -930.95121      4251.7991      4317.1085    
     79460   180.71004     -930.99603      4511.1197      4315.9601    
     79470   208.1484      -931.65674      3732.3113      4318.9462    
     79480   201.07271     -931.34446      2283.1231      4325.3892    
     79490   182.17935     -930.70458      384.74361      4333.9712    
     79500   200.22107     -931.07911     -1735.1552      4342.9347    
     79510   208.14625     -931.16636     -3430.5405      4350.3298    
     79520   197.78495     -930.77431     -4303.0374      4354.5645    
     79530   212.70877     -931.11889     -4329.2216      4354.7919    
     79540   228.47083     -931.51808     -3456.568       4350.9846    
     79550   211.20598     -931.02622     -1768.4978      4343.9712    
     79560   203.15264     -930.79683      216.89982      4335.3154    
     79570   209.74648     -930.96911      2063.6755      4326.8607    
     79580   207.01258     -930.88195      3504.3184      4320.3168    
     79590   194.919       -930.54066      4278.9302      4317.0017    
     79600   193.05997     -930.49149      4177.423       4317.6162    
     79610   199.15187     -930.66871      3183.7738      4322.0724    
     79620   202.11784     -930.75866      1498.8733      4329.4766    
     79630   208.68346     -930.94213     -551.76558      4338.2916    
     79640   216.18446     -931.14629     -2491.4836      4346.6294    
     79650   214.22791     -931.0927      -3844.1446      4352.6843    
     79660   202.05769     -930.76768     -4353.4494      4355.1763    
     79670   200.27792     -930.74331     -4010.7845      4353.6089    
     79680   214.55105     -931.17548     -2878.455       4348.3023    
     79690   215.88204     -931.25566     -1053.0159      4340.3342    
     79700   203.09603     -930.94084      1066.1849      4331.409     
     79710   207.02626     -931.08467      2884.9291      4323.4736    
     79720   209.02023     -931.17931      4080.3308      4318.1999    
     79730   191.82252     -930.74923      4483.2945      4316.682     
     79740   196.76534     -930.94093      3859.869       4319.2739    
     79750   216.56375     -931.55547      2307.5823      4325.4132    
     79760   199.10576     -931.13554      311.10951      4333.7063    
     79770   179.18476     -930.62978     -1738.7754      4342.3162    
     79780   182.7082      -930.75731     -3398.3346      4349.3395    
     79790   187.90647     -930.92483     -4231.1954      4353.2266    
     79800   194.53425     -931.13576     -4107.3092      4353.1836    
     79810   204.52522     -931.44771     -3116.4273      4349.3184    
     79820   204.79966     -931.49284     -1491.6395      4342.5611    
     79830   206.36732     -931.5707       339.48589      4334.424     
     79840   206.54997     -931.6063       2055.9858      4326.6128    
     79850   191.35001     -931.21156      3394.0103      4320.7137    
     79860   186.00592     -931.08899      3972.46        4317.9361    
     79870   194.90516     -931.36664      3674.0127      4318.8036    
     79880   185.54388     -931.13917      2730.9234      4323.0634    
     79890   180.87134     -931.03469      1248.8825      4329.8524    
     79900   196.89738     -931.49216     -569.63463      4337.8078    
     79910   199.44583     -931.56453     -2290.3158      4345.2572    
     79920   192.28904     -931.36332     -3586.2651      4350.5918    
     79930   192.63507     -931.37334     -4126.8911      4352.5973    
     79940   183.83395     -931.13309     -3636.8056      4350.7788    
     79950   185.35309     -931.17736     -2369.1754      4345.5822    
     79960   196.2547      -931.47076     -707.68097      4338.1873    
     79970   192.96123     -931.35434      1121.5349      4330.1557    
     79980   193.26502     -931.32313      2765.7152      4323.1804    
     79990   205.29102     -931.60798      3781.5591      4318.755     
     80000   181.01198     -930.88265      4064.9959      4317.8142    
     80010   176.76891     -930.71308      3417.6301      4320.6008    
     80020   204.71272     -931.41622      2011.4748      4326.5334    
     80030   201.95794     -931.24382      330.26409      4334.35      
     80040   200.19826     -931.0902      -1443.5401      4342.4911    
     80050   223.48977     -931.62076     -3058.5851      4349.2981    
     80060   215.30187     -931.28546     -3973.7835      4353.2784    
     80070   197.11049     -930.70088     -4038.8907      4353.5641    
     80080   209.21137     -930.97575     -3324.092       4350.0846    
     80090   210.82914     -930.96797     -1781.639       4343.5351    
     80100   195.30238     -930.4897       221.64562      4335.3585    
     80110   199.52271     -930.55673      2032.4932      4327.3949    
     80120   208.56029     -930.75518      3348.4976      4321.3176    
     80130   212.0609      -930.81041      4022.6815      4318.3345    
     80140   204.03203     -930.56284      3921.3752      4319.0555    
     80150   201.8898      -930.49172      2922.4013      4323.3763    
     80160   217.22785     -930.91013      1231.6932      4330.3895    
     80170   217.07207     -930.89926     -601.3234       4338.5661    
     80180   204.7529      -930.5507      -2200.8165      4346.2127    
     80190   223.52929     -931.06985     -3468.0808      4351.8148    
     80200   231.79312     -931.3152      -4080.9236      4354.1886    
     80210   207.42251     -930.67639     -3774.2474      4352.7704    
     80220   204.57552     -930.6454      -2665.0821      4347.8457    
     80230   216.39356     -931.02513     -979.71063      4340.4618    
     80240   210.32119     -930.90611      951.22037      4332.1987    
     80250   205.403       -930.81448      2621.838       4324.8338    
     80260   204.4602      -930.83274      3692.813       4319.8976    
     80270   202.87462     -930.83947      3979.7902      4318.3623    
     80280   195.52026     -930.69149      3464.6641      4320.4881    
     80290   194.3452      -930.71381      2215.9793      4325.801     
     80300   199.60678     -930.90704      531.13449      4333.1662    
     80310   204.94587     -931.09243     -1207.5224      4341.0396    
     80320   206.55019     -931.16786     -2709.1983      4347.8028    
     80330   205.20181     -931.16073     -3709.6336      4352.0489    
     80340   210.43706     -931.34419     -3989.4769      4352.839     
     80350   202.84844     -931.18061     -3354.675       4349.9263    
     80360   188.51607     -930.82657     -1946.1914      4343.9129    
     80370   195.30474     -931.04654     -169.19238      4336.1119    
     80380   199.54494     -931.18162      1707.258       4328.1888    
     80390   196.98722     -931.11768      3276.5337      4321.8702    
     80400   207.91415     -931.42907      4059.5905      4318.5716    
     80410   208.9197      -931.47528      3916.8701      4319.001     
     80420   195.8575      -931.13843      2948.961       4323.0303    
     80430   194.49168     -931.12307      1340.3461      4329.7748    
     80440   201.18134     -931.32066     -583.27732      4337.761     
     80450   196.49673     -931.192       -2389.5527      4345.214     
     80460   180.26952     -930.73495     -3608.6015      4350.4604    
     80470   183.27575     -930.80962     -4014.5691      4352.3546    
     80480   194.65084     -931.11805     -3550.1029      4350.5169    
     80490   199.82504     -931.25674     -2353.8565      4345.387     
     80500   200.47817     -931.26814     -634.1273       4338.0975    
     80510   200.24442     -931.24807      1272.9         4330.2572    
     80520   198.66582     -931.18461      2876.0836      4323.6185    
     80530   198.41986     -931.15879      3786.7331      4319.6397    
     80540   200.30254     -931.1994       3868.417       4319.146     
     80550   199.45735     -931.17212      3170.1183      4322.2112    
     80560   211.50114     -931.50724      1742.7778      4328.1861    
     80570   212.82573     -931.54508     -51.294882      4335.7716    
     80580   193.5616      -931.0077      -1793.7091      4343.3172    
     80590   189.13331     -930.87558     -3158.7162      4349.2004    
     80600   203.99812     -931.27841     -3865.1862      4352.1449    
     80610   201.75705     -931.2139      -3759.9561      4351.4938    
     80620   187.93599     -930.83511     -2890.4856      4347.3505    
     80630   183.03794     -930.69929     -1345.1648      4340.5502    
     80640   188.92811     -930.84807      576.81274      4332.5444    
     80650   192.03434     -930.90273      2403.9947      4325.1106    
     80660   202.59468     -931.1565       3653.6095      4319.9122    
     80670   208.15698     -931.27439      4138.5499      4318.0872    
     80680   210.44774     -931.31314      3739.9057      4320.0636    
     80690   203.34469     -931.09975      2533.2326      4325.473     
     80700   198.01155     -930.93304      761.01224      4333.2118    
     80710   219.16023     -931.49046     -1252.6511      4341.6458    
     80720   227.47863     -931.68698     -2965.5821      4348.9199    
     80730   199.65425     -930.88941     -3964.6671      4353.4421    
     80740   197.53781     -930.8161      -4259.1573      4354.257     
     80750   206.56422     -931.05832     -3704.0333      4351.1059    
     80760   180.86539     -930.33517     -2184.5086      4344.5491    
     80770   186.74306     -930.4734      -223.22972      4336.0016    
     80780   217.48319     -931.27238      1796.5295      4327.2965    
     80790   201.4226      -930.75352      3667.6016      4320.3141    
     80800   198.18417     -930.59067      4679.0117      4316.7224    
     80810   226.13015     -931.29273      4455.7068      4317.4105    
     80820   217.75395     -930.99341      3301.9872      4322.1862    
     80830   202.49428     -930.51425      1476.7474      4329.9926    
     80840   212.62018     -930.7323      -685.74324      4339.1484    
     80850   208.80885     -930.55308     -2589.0596      4347.6695    
     80860   215.77771     -930.67563     -3958.2385      4353.77      
     80870   224.49542     -930.85885     -4496.8641      4356.1736    
     80880   224.05982     -930.8116      -4052.8324      4354.39      
     80890   232.61167     -931.03706     -2809.8693      4348.8478    
     80900   226.73799     -930.87881     -1003.212       4340.7354    
     80910   195.78319     -930.02644      1071.4417      4331.7597    
     80920   201.98558     -930.19849      2871.493       4323.8288    
     80930   223.98215     -930.81189      4080.2307      4318.5875    
     80940   215.38854     -930.59486      4498.2477      4317.1224    
     80950   208.80492     -930.45435      3887.5613      4319.779     
     80960   220.35469     -930.83332      2359.7904      4325.9849    
     80970   214.29346     -930.73173      411.3271       4334.3527    
     80980   202.35229     -930.46293     -1576.9986      4343.0832    
     80990   211.91211     -930.7897      -3294.7868      4350.3217    
     81000   213.8998      -930.91689     -4272.2209      4354.48      
     81010   206.29374     -930.79165     -4284.0899      4354.656     
     81020   206.0571      -930.88075     -3426.6944      4350.8512    
     81030   206.91922     -931.00178     -1887.6183      4343.8954    
     81040   200.46693     -930.90768      109.86764      4335.2574    
     81050   199.49671     -930.94515      2135.7459      4326.799     
     81060   212.04067     -931.34786      3644.6446      4320.3652    
     81070   208.63825     -931.30922      4378.5203      4317.3196    
     81080   204.69214     -931.25986      4178.9259      4318.3019    
     81090   211.39545     -931.51104      3006.7355      4323.1005    
     81100   204.14556     -931.37088      1131.9691      4330.6334    
     81110   185.9293      -930.90747     -975.17582      4339.1791    
     81120   180.55845     -930.77795     -2825.8987      4346.791     
     81130   181.80155     -930.81834     -3955.6225      4351.758     
     81140   179.89809     -930.76731     -4153.0827      4353.0357    
     81150   188.49087     -931.008       -3512.9564      4350.4499    
     81160   204.77138     -931.46126     -2162.9257      4344.6309    
     81170   209.32585     -931.58602     -301.8117       4336.8737    
     81180   204.26265     -931.43918      1612.0858      4328.9137    
     81190   202.31491     -931.376        3081.2756      4322.5019    
     81200   196.93311     -931.22003      3878.1934      4318.9702    
     81210   190.83146     -931.04949      3865.8629      4319.0188    
     81220   205.40129     -931.45828      2983.9829      4322.6026    
     81230   209.46093     -931.57826      1531.7261      4328.9083    
     81240   188.19669     -930.991       -209.98935      4336.5927    
     81250   194.83858     -931.16814     -2062.1943      4344.0265    
     81260   199.29783     -931.27698     -3424.6364      4349.5136    
     81270   174.45233     -930.57183     -3859.4267      4351.8106    
     81280   178.63205     -930.67185     -3508.6742      4350.5114    
     81290   209.88618     -931.51654     -2480.3555      4345.9718    
     81300   207.1126      -931.41034     -844.37306      4339.1969    
     81310   197.42208     -931.1077       930.08243      4331.7138    
     81320   209.31711     -931.39629      2415.6845      4325.1578    
     81330   203.07048     -931.17818      3441.5116      4320.8902    
     81340   192.71669     -930.85127      3692.7151      4319.8106    
     81350   196.55826     -930.91966      3080.8891      4322.1138    
     81360   196.19508     -930.86503      1895.8651      4327.2322    
     81370   206.61148     -931.09809      344.23059      4334.0603    
     81380   215.08639     -931.26299     -1257.9889      4341.162     
     81390   202.65033     -930.84163     -2527.0229      4347.0609    
     81400   207.55052     -930.90192     -3348.2556      4350.5713    
     81410   222.89626     -931.25249     -3499.7342      4350.9503    
     81420   207.42507     -930.75733     -2753.3452      4348.1049    
     81430   203.11546     -930.57997     -1451.9597      4342.7451    
     81440   216.53882     -930.88882      23.649584      4336.0966    
     81450   206.56155     -930.54363      1523.8812      4329.5522    
     81460   202.98113     -930.37771      2723.3794      4324.4842    
     81470   226.76953     -930.97354      3318.8683      4321.9647    
     81480   224.91157     -930.87022      3261.4654      4322.516     
     81490   202.40246     -930.21294      2468.7015      4326.0501    
     81500   212.6865      -930.47203      991.10856      4331.8072    
     81510   224.02921     -930.75828     -602.97726      4338.4418    
     81520   210.20931     -930.34989     -1916.3444      4344.4848    
     81530   212.57712     -930.39755     -2886.2051      4348.7032    
     81540   225.71956     -930.75539     -3256.2061      4350.2154    
     81550   217.92607     -930.55069     -2793.4935      4348.7175    
     81560   210.53487     -930.37255     -1723.6376      4344.6592    
     81570   228.25992     -930.90556     -413.62513      4339.0504    
     81580   236.76721     -931.20773      906.23886      4333.1256    
     81590   223.39632     -930.93483      1991.7386      4328.1042    
     81600   210.78074     -930.71024      2631.2261      4324.9685    
     81610   202.23004     -930.61583      2688.594       4324.2789    
     81620   199.77855     -930.69387      2164.1182      4326.0612    
     81630   201.91469     -930.89039      1231.5414      4329.819     
     81640   194.56116     -930.79964      114.09493      4334.6848    
     81650   192.17899     -930.81649     -1033.1687      4339.6151    
     81660   196.40243     -930.9941      -1930.4313      4343.5547    
     81670   198.00329     -931.08506     -2352.2109      4345.6856    
     81680   198.84312     -931.1476      -2306.2553      4345.6246    
     81690   205.74598     -931.37583     -1818.1154      4343.4358    
     81700   207.92626     -931.47269     -923.9438       4339.6021    
     81710   199.05708     -931.25942      162.93511      4334.9666    
     81720   193.10342     -931.12024      1195.3881      4330.5379    
     81730   196.92622     -931.24619      1947.7582      4327.2601    
     81740   207.39746     -931.55742      2214.7436      4325.8015    
     81750   203.52285     -931.47528      2028.5479      4326.3936    
     81760   186.10061     -931.01738      1501.4328      4328.8519    
     81770   184.32577     -930.98653      644.17428      4332.6681    
     81780   198.93517     -931.40312     -415.32952      4337.0391    
     81790   192.64803     -931.23338     -1354.6484      4340.996     
     81800   190.15005     -931.16501     -2055.8698      4343.6659    
     81810   197.49005     -931.36801     -2301.2794      4344.4181    
     81820   185.97816     -931.04622     -1922.3809      4343.0557    
     81830   180.47241     -930.88584     -1132.9317      4339.9403    
     81840   198.57558     -931.37151     -164.14854      4335.8154    
     81850   200.38958     -931.39645      912.68392      4331.5994    
     81860   197.67747     -931.29299      1763.6679      4328.2713    
     81870   206.32549     -931.50472      2117.299       4326.5909    
     81880   193.91365     -931.13304      2043.3966      4326.8763    
     81890   186.85644     -930.90986      1528.4313      4329.0366    
     81900   206.07497     -931.40943      624.96559      4332.5768    
     81910   203.88108     -931.30779     -308.88168      4336.6739    
     81920   202.72951     -931.23486     -1151.9024      4340.4551    
     81930   203.18081     -931.20496     -1744.8128      4343.1444    
     81940   192.7028      -930.87142     -1969.3799      4344.2033    
     81950   203.259       -931.12099     -1864.8325      4343.4305    
     81960   210.69256     -931.28123     -1304.5415      4340.9559    
     81970   188.38284     -930.61606     -334.15905      4337.3249    
     81980   201.73099     -930.9372       553.24532      4333.418     
     81990   222.09195     -931.44474      1222.8221      4330.0591    
     82000   188.75662     -930.46549      1771.1839      4327.8784    
     82010   189.26968     -930.43061      1858.3652      4327.3409    
     82020   214.56796     -931.07482      1518.5517      4328.5139    
     82030   198.20061     -930.56164      1049.5736      4331.092     
     82040   196.26188     -930.45263      375.34578      4334.6165    
     82050   224.92924     -931.1875      -429.6898       4338.4545    
     82060   228.65221     -931.23304     -1088.6864      4341.8743    
     82070   230.57506     -931.24696     -1624.8317      4344.2543    
     82080   228.32534     -931.16449     -1897.6757      4345.111     
     82090   213.44889     -930.74907     -1793.138       4344.2122    
     82100   215.95071     -930.82932     -1431.9678      4341.6614    
     82110   203.67176     -930.50677     -655.4402       4337.8331    
     82120   186.26986     -930.04035      459.80525      4333.4662    
     82130   206.75961     -930.62249      1413.7607      4329.568     
     82140   217.57426     -930.94235      2017.5467      4327.0087    
     82150   194.96645     -930.34285      2291.4265      4326.3414    
     82160   214.25344     -930.91887      1927.0077      4327.7706    
     82170   216.01984     -931.02686      1172.582       4330.9628    
     82180   190.83698     -930.3974       224.28613      4335.2155    
     82190   203.91515     -930.83901     -903.02962      4339.6302    
     82200   216.95218     -931.30214     -1783.4852      4343.1836    
     82210   201.70983     -930.99843     -2102.816       4345.0811    
     82220   207.27161     -931.28223     -2072.791       4345.0143    
     82230   217.92669     -931.72183     -1714.9177      4343.0295    
     82240   200.59998     -931.37634     -903.27834      4339.498     
     82250   191.91053     -931.24212      80.692602      4335.1752    
     82260   191.79933     -931.31869      971.19146      4330.9715    
     82270   187.57569     -931.25767      1658.4346      4327.7091    
     82280   185.33451     -931.2338       2007.677       4326.0069    
     82290   185.1358      -931.25506      1927.1331      4326.1646    
     82300   177.3825      -931.05555      1508.8313      4328.0988    
     82310   182.24224     -931.19533      777.10163      4331.4053    
     82320   198.16043     -931.63292     -140.95143      4335.4002    
     82330   195.76855     -931.55726     -949.54948      4339.2438    
     82340   181.66428     -931.15217     -1539.912       4342.187     
     82350   197.8188      -931.58326     -1969.1912      4343.6721    
     82360   202.63157     -931.69761     -1934.5475      4343.3357    
     82370   182.11405     -931.10983     -1397.2973      4341.2313    
     82380   185.49893     -931.18109     -687.98659      4337.8528    
     82390   197.24552     -931.47461      151.21188      4333.8787    
     82400   186.64545     -931.14036      1105.2703      4330.1031    
     82410   190.82397     -931.21178      1816.7609      4327.3834    
     82420   206.91712     -931.60842      2119.8475      4326.3585    
     82430   202.29175     -931.43142      1997.7338      4327.2956    
     82440   205.70256     -931.48315      1306.295       4330.0492    
     82450   200.77903     -931.30434      321.47245      4333.9845    
     82460   184.39779     -930.80648     -636.85576      4338.198     
     82470   191.96392     -930.96794     -1507.0596      4341.7908    
     82480   200.7468      -931.15596     -2083.9234      4343.9649    
     82490   187.46409     -930.7319      -2121.3359      4344.2102    
     82500   196.53508     -930.9298      -1729.9649      4342.4962    
     82510   209.6246      -931.23543     -956.53724      4339.2084    
     82520   189.69754     -930.62618      132.65791      4335.0883    
     82530   194.12536     -930.69393      1107.9845      4331.1286    
     82540   225.44534     -931.504        1749.522       4328.221     
     82550   220.7082      -931.32292      2120.6571      4326.9623    
     82560   209.9322      -930.99338      1978.0027      4327.6593    
     82570   217.25435     -931.1785       1312.6624      4330.1618    
     82580   201.44142     -930.72784      490.22109      4333.8681    
     82590   195.94142     -930.56499     -431.06923      4338.0026    
     82600   216.69677     -931.13015     -1370.0119      4341.7024    
     82610   213.78122     -931.04377     -1922.9941      4344.1227    
     82620   198.50186     -930.62237     -1995.647       4344.7588    
     82630   205.38805     -930.82081     -1770.441       4343.5396    
     82640   211.39277     -930.99905     -1229.4752      4340.6972    
     82650   203.32333     -930.79058     -343.94988      4336.7614    
     82660   197.79111     -930.65278      675.02204      4332.5566    
     82670   196.36475     -930.62589      1555.7334      4329.0186    
     82680   206.35004     -930.91705      2022.3447      4326.9384    
     82690   203.99257     -930.87126      2087.7003      4326.7395    
     82700   197.74849     -930.72242      1755.6833      4328.4672    
     82710   218.0611      -931.31812      971.26276      4331.7916    
     82720   228.26818     -931.64977     -44.276696      4335.988     
     82730   204.70217     -931.06111     -975.21003      4340.126     
     82740   197.01617     -930.92299     -1732.4035      4343.3358    
     82750   206.32301     -931.2747      -2192.4171      4344.9188    
     82760   194.09187     -931.04428     -2143.0464      4344.4727    
     82770   192.79225     -931.12433     -1633.973       4342.0555    
     82780   196.11062     -931.33692     -756.45551      4338.1597    
     82790   181.98136     -931.05273      281.15442      4333.6084    
     82800   177.26893     -931.00521      1232.711       4329.3606    
     82810   185.962       -931.31101      1969.3681      4326.292     
     82820   191.07855     -931.5033       2328.0624      4325.0648    
     82830   201.48484     -931.83576      2105.5898      4325.9787    
     82840   196.49471     -931.73545      1399.0107      4328.8195    
     82850   180.89948     -931.3291       422.01383      4332.932     
     82860   184.30856     -931.4361      -638.65681      4337.4092    
     82870   190.14305     -931.5998      -1553.4248      4341.2707    
     82880   174.29668     -931.15258     -2082.8161      4343.6805    
     82890   183.52435     -931.39591     -2217.2561      4344.1464    
     82900   194.0247      -931.66931     -1809.3276      4342.5714    
     82910   183.89781     -931.36693     -960.15862      4339.3509    
     82920   192.44241     -931.57856     -63.544258      4335.2649    
     82930   200.20191     -931.76262      792.2491       4331.1581    
     82940   185.14197     -931.31122      1602.6654      4327.8326    
     82950   184.95201     -931.27111      2094.7667      4326.0125    
     82960   194.72018     -931.50349      2107.6274      4326.13      
     82970   190.27251     -931.33985      1664.4676      4328.1853    
     82980   195.50384     -931.44418      768.94958      4331.7505    
     82990   199.615       -931.51337     -305.83257      4336.0022    
     83000   187.03725     -931.11743     -1242.1167      4339.9552    
     83010   185.7295      -931.03294     -1930.0124      4342.7365    
     83020   184.11108     -930.93598     -2155.8996      4343.7236    
     83030   175.44716     -930.64135     -1813.4665      4342.7261    
     83040   192.59432     -931.05838     -1107.1409      4340.0646    
     83050   221.97098     -931.80837     -197.94642      4336.4071    
     83060   212.22212     -931.48018      821.519        4332.6122    
     83070   197.61142     -931.03122      1573.0177      4329.6038    
     83080   211.63506     -931.38455      1809.5512      4328.0543    
     83090   207.99802     -931.2552       1721.5227      4328.1901    
     83100   191.49118     -930.77694      1346.9508      4329.918     
     83110   196.41658     -930.8947       658.2833       4332.8739    
     83120   209.58149     -931.23936     -180.26199      4336.4204    
     83130   208.34955     -931.18713     -995.78337      4339.7814    
     83140   201.24261     -930.9768      -1622.7248      4342.2038    
     83150   197.85012     -930.87274     -1858.2094      4343.1196    
     83160   197.38037     -930.85124     -1660.9226      4342.3206    
     83170   198.33607     -930.86993     -1141.4852      4339.9967    
     83180   190.7655      -930.6498      -359.18394      4336.6462    
     83190   193.72757     -930.7171       541.04179      4333.002     
     83200   213.33682     -931.24376      1337.3371      4329.8911    
     83210   206.05493     -931.0271       1904.5607      4328.0455    
     83220   202.42811     -930.91835      1950.9776      4327.9584    
     83230   225.18755     -931.54933      1444.5919      4329.6564    
     83240   219.87197     -931.41267      759.92826      4332.6887    
     83250   196.4159      -930.77936     -37.077884      4336.4119    
     83260   203.59799     -930.99723     -1002.8683      4340.0655    
     83270   202.90363     -930.99657     -1736.3572      4342.7778    
     83280   194.219       -930.77584     -2000.3334      4343.8813    
     83290   201.6038      -931.00376     -1851.3134      4343.1314    
     83300   204.27991     -931.10542     -1302.7409      4340.6824    
     83310   191.38544     -930.77599     -371.28882      4337.0667    
     83320   195.96041     -930.92945      596.63107      4333.1399    
     83330   212.04557     -931.40621      1345.7084      4329.7913    
     83340   207.39907     -931.31939      1818.1741      4327.7125    
     83350   193.95795     -931.00064      1919.9854      4327.3262    
     83360   195.76279     -931.11694      1532.5715      4328.7033    
     83370   195.2324      -931.18276      782.72654      4331.4812    
     83380   178.89378     -930.81509     -54.215934      4334.9739    
     83390   181.1259      -930.96249     -828.59274      4338.4032    
     83400   197.45036     -931.50837     -1383.0741      4341.055     
     83410   202.09336     -931.74104     -1639.1073      4342.4177    
     83420   195.48189     -931.66419     -1594.6537      4342.2585    
     83430   191.76379     -931.66233     -1255.6003      4340.6291    
     83440   186.17843     -931.59515     -643.10044      4337.8605    
     83450   189.51957     -931.76007      38.275098      4334.5197    
     83460   189.30354     -931.81263      701.73959      4331.245     
     83470   174.97199     -931.45577      1292.3434      4328.6531    
     83480   173.81696     -931.44811      1605.2475      4327.2714    
     83490   177.98563     -931.57557      1589.2818      4327.3788    
     83500   171.4941      -931.39516      1280.4791      4328.954     
     83510   178.51801     -931.57897      638.27203      4331.695     
     83520   187.16317     -931.79694     -184.64578      4335.0067    
     83530   174.96519     -931.4277      -879.58493      4338.1413    
     83540   173.7744      -931.3569      -1359.5476      4340.4517    
     83550   185.13787     -931.62516     -1594.489       4341.4927    
     83560   186.67977     -931.61492     -1488.8441      4341.0594    
     83570   186.76383     -931.56281     -1039.3814      4339.2628    
     83580   197.3216      -931.79943     -378.40106      4336.5248    
     83590   197.98129     -931.76067      392.92765      4333.4677    
     83600   193.12906     -931.57283      1067.6246      4330.8003    
     83610   194.26762     -931.55446      1430.1684      4329.1321    
     83620   190.96668     -931.4154       1449.1456      4328.7925    
     83630   190.45174     -931.35651      1150.2632      4329.7908    
     83640   186.93057     -931.21447      623.47876      4331.8468    
     83650   180.48967     -930.99018     -2.2261683      4334.4714    
     83660   179.78335     -930.92128     -585.31827      4337.0868    
     83670   189.67735     -931.14178     -1058.1273      4339.1495    
     83680   197.87207     -931.31352     -1287.1029      4340.2293    
     83690   193.76458     -931.1481      -1166.3395      4340.1261    
     83700   190.58139     -931.01319     -786.25816      4338.9539    
     83710   198.81084     -931.19662     -292.55175      4337.0653    
     83720   201.69639     -931.2332       257.29408      4334.9269    
     83730   206.4697      -931.32669      697.50188      4333.0426    
     83740   225.00756     -931.81025      885.09907      4331.8102    
     83750   216.48175     -931.55621      924.58972      4331.4108    
     83760   181.17766     -930.56736      828.92491      4331.8766    
     83770   185.90831     -930.68693      458.03423      4333.0979    
     83780   212.18278     -931.39895      20.147446      4334.7404    
     83790   194.2         -930.8823      -206.57639      4336.4173    
     83800   190.48761     -930.76283     -462.10551      4337.8916    
     83810   216.39237     -931.46359     -735.29642      4338.9257    
     83820   207.88593     -931.21297     -789.53354      4339.2879    
     83830   189.6321      -930.69699     -743.68837      4338.9188    
     83840   195.19342     -930.84026     -612.19601      4337.8655    
     83850   201.27702     -930.99437     -279.94691      4336.2668    
     83860   197.41059     -930.87075      179.46848      4334.4328    
     83870   200.01084     -930.92558      602.17858      4332.7825    
     83880   204.20078     -931.02311      908.59028      4331.7047    
     83890   215.02843     -931.30723      1015.6592      4331.4753    
     83900   219.5551      -931.424        906.78129      4332.1882    
     83910   206.60142     -931.06496      552.78904      4333.7336    
     83920   199.2072      -930.86495     -46.070965      4335.7735    
     83930   196.63932     -930.79903     -602.12046      4337.7669    
     83940   188.33782     -930.57062     -865.81656      4339.2132    
     83950   204.39207     -931.01568     -963.55517      4339.8546    
     83960   224.11372     -931.56645     -908.04954      4339.6031    
     83970   210.97923     -931.2164      -594.54589      4338.5289    
     83980   206.88085     -931.12914     -233.39666      4336.9124    
     83990   203.41394     -931.06881      124.90787      4335.094     
     84000   190.28141     -930.74582      476.74436      4333.4114    
     84010   188.64932     -930.74432      701.16922      4332.1824    
     84020   193.47139     -930.92513      763.26629      4331.6106    
     84030   190.73968     -930.89869      730.11938      4331.7566    
     84040   196.56459     -931.11318      560.52867      4332.5798    
     84050   197.43592     -931.19469      278.39359      4333.9203    
     84060   195.10777     -931.18918     -79.400368      4335.5135    
     84070   201.88762     -931.44051     -421.71967      4337.0286    
     84080   197.42545     -931.38232     -580.47788      4338.1602    
     84090   201.30273     -931.55642     -650.16804      4338.7523    
     84100   217.50154     -932.08184     -723.88878      4338.7336    
     84110   195.9083      -931.56299     -619.09979      4338.0569    
     84120   173.6516      -931.0111      -397.38776      4336.8188    
     84130   185.90441     -931.40593     -192.44545      4335.2181    
     84140   177.50345     -931.21572      143.84755      4333.4651    
     84150   168.01447     -930.97927      537.16518      4331.869     
     84160   185.33345     -931.47513      820.8418       4330.7822    
     84170   187.23455     -931.53355      983.19147      4330.468     
     84180   187.88194     -931.55085      894.07585      4331.0617    
     84190   201.17469     -931.91557      550.5478       4332.4733    
     84200   185.58742     -931.47451      147.54542      4334.3953    
     84210   175.39893     -931.1772      -370.65878      4336.4391    
     84220   189.19682     -931.53509     -860.04238      4338.129     
     84230   188.68112     -931.48549     -1020.2559      4339.0336    
     84240   184.1562      -931.31862     -903.92972      4339.0015    
     84250   198.27078     -931.66123     -688.83108      4338.1324    
     84260   202.00607     -931.70851     -349.54215      4336.6381    
     84270   190.41741     -931.32938      86.895891      4334.841     
     84280   192.18449     -931.31849      455.7348       4333.1368    
     84290   187.23935     -931.11469      755.51415      4331.8729    
     84300   185.68429     -931.00136      869.25214      4331.3154    
     84310   197.72499     -931.25954      778.29884      4331.5644    
     84320   204.92982     -931.38166      593.13891      4332.5401    
     84330   203.29844     -931.26565      286.46513      4334.0617    
     84340   196.04077     -931.00318     -130.49702      4335.8388    
     84350   189.08879     -930.75596     -490.1513       4337.4936    
     84360   201.31598     -931.04518     -768.47807      4338.6894    
     84370   212.56741     -931.31304     -913.84975      4339.1711    
     84380   197.58573     -930.86398     -801.40211      4338.8188    
     84390   194.30623     -930.74759     -527.61064      4337.7343    
     84400   209.63172     -931.15073     -176.0856       4336.1734    
     84410   205.12097     -931.00823      270.17282      4334.473     
     84420   198.0322      -930.79911      639.80889      4333.0381    
     84430   213.44862     -931.21871      786.30182      4332.1994    
     84440   208.61097     -931.08178      871.46429      4332.1057    
     84450   190.64937     -930.58383      834.32853      4332.8267    
     84460   206.89872     -931.03507      446.2863       4334.3009    
     84470   229.66781     -931.67235     -97.338805      4336.1774    
     84480   210.37524     -931.15287     -475.6668       4337.9726    
     84490   196.94108     -930.79998     -814.58872      4339.3181    
     84500   209.13311     -931.16019     -1108.8693      4339.8966    
     84510   197.03629     -930.84739     -1047.3462      4339.4652    
     84520   182.30185     -930.45754     -698.74532      4338.0813    
     84530   190.62177     -930.70059     -212.78237      4336.0669    
     84540   202.85785     -931.04709      355.42683      4333.8807    
     84550   208.62251     -931.21479      835.79415      4332.0426    
     84560   201.64105     -931.03239      1110.8869      4330.9903    
     84570   191.98567     -930.77626      1139.3502      4330.9721    
     84580   205.11077     -931.15178      882.17837      4332.0038    
     84590   225.51035     -931.73552      410.75149      4333.8433    
     84600   209.92433     -931.33166     -67.28842       4336.0633    
     84610   192.27048     -930.8739      -571.90863      4338.2095    
     84620   204.54895     -931.24925     -1044.0791      4339.8107    
     84630   197.73398     -931.09747     -1157.4086      4340.4566    
     84640   192.83168     -930.99969     -1040.491       4340.034     
     84650   208.1275      -931.46774     -854.69778      4338.6458    
     84660   197.64396     -931.22647     -412.76229      4336.493     
     84670   177.60826     -930.71691      205.89174      4333.9903    
     84680   188.10428     -931.05025      695.13635      4331.6933    
     84690   195.28274     -931.29221      1049.7674      4330.0592    
     84700   182.52834     -930.9793       1289.0833      4329.4178    
     84710   195.95773     -931.39392      1194.7677      4329.9643    
     84720   206.978       -931.75         856.94763      4331.6114    
     84730   185.14574     -931.19776      400.64386      4334.0491    
     84740   189.31496     -931.3669      -336.58472      4336.8271    
     84750   199.26642     -931.70177     -1090.4805      4339.274     
     84760   179.42951     -931.21038     -1440.6435      4340.7195    
     84770   181.08707     -931.3121      -1441.3051      4340.8331    
     84780   201.24364     -931.93277     -1177.5868      4339.616     
     84790   185.08938     -931.54796     -588.83216      4337.3356    
     84800   178.97357     -931.43472      59.994733      4334.5304    
     84810   198.411       -932.03121      617.49964      4331.8004    
     84820   181.97048     -931.62974      1149.3775      4329.6765    
     84830   169.82402     -931.33744      1345.1559      4328.6216    
     84840   181.44585     -931.69832      1170.3033      4328.8061    
     84850   166.70165     -931.31656      953.23094      4330.0886    
     84860   167.33106     -931.34777      535.72154      4332.2428    
     84870   196.98338     -932.17373     -156.81705      4334.8646    
     84880   187.41495     -931.90257     -710.64193      4337.3397    
     84890   165.16109     -931.27126     -1042.8413      4339.1547    
     84900   180.58891     -931.67263     -1299.1437      4339.9854    
     84910   186.74898     -931.79786     -1258.7938      4339.6192    
     84920   178.15057     -931.49977     -872.61455      4338.1069    
     84930   184.28002     -931.59377     -308.38783      4335.8059    
     84940   186.4107      -931.55574      373.68669      4333.25      
     84950   187.07536     -931.46384      966.19017      4331.0635    
     84960   200.09422     -931.70689      1258.2404      4329.7787    
     84970   197.30408     -931.51429      1319.8695      4329.6698    
     84980   195.1697      -931.35749      1075.4966      4330.7778    
     84990   205.66508     -931.56513      521.36691      4332.8648    
     85000   199.82267     -931.33426     -107.86397      4335.4263    
     85010   187.7966      -930.94641     -689.90404      4337.8788    
     85020   188.9388      -930.93117     -1183.8081      4339.6774    
     85030   179.57869     -930.62625     -1382.7482      4340.38      
     85040   174.47606     -930.44035     -1200.3444      4339.8142    
     85050   198.25459     -931.05211     -773.94639      4338.1488    
     85060   206.69975     -931.23617     -137.16256      4335.7931    
     85070   198.06652     -930.95238      573.15375      4333.3409    
     85080   214.72631     -931.37622      1082.4085      4331.4342    
     85090   231.60545     -931.81476      1339.2119      4330.5426    
     85100   216.77722     -931.39066      1272.1556      4330.8928    
     85110   201.18835     -930.95742      768.53186      4332.4017    
     85120   200.8115      -930.94888      76.286055      4334.6099    
     85130   196.82583     -930.83863     -426.07367      4336.8969    
     85140   195.31337     -930.79536     -753.51238      4338.7872    
     85150   199.27522     -930.90181     -998.52398      4339.968     
     85160   208.87019     -931.16559     -1110.5033      4340.2174    
     85170   206.17313     -931.09232     -922.84024      4339.4523    
     85180   192.96098     -930.7295      -500.37444      4337.8517    
     85190   193.01539     -930.73241     -82.655618      4335.799     
     85200   202.5323      -930.99507      263.52151      4333.684     
     85210   195.19048     -930.78793      692.92866      4331.8463    
     85220   193.85331     -930.7453       1112.8459      4330.6774    
     85230   217.98443     -931.40947      1256.3702      4330.5427    
     85240   227.56108     -931.67927      1033.2408      4331.5606    
     85250   199.41104     -930.91381      597.82438      4333.5301    
     85260   190.86995     -930.69416     -34.748228      4336.036     
     85270   213.34879     -931.33615     -711.18599      4338.4932    
     85280   211.15579     -931.29984     -1124.5045      4340.294     
     85290   196.27747     -930.91811     -1294.9237      4341.0505    
     85300   199.11629     -931.03219     -1283.1071      4340.6026    
     85310   195.95487     -930.98262     -900.34826      4338.9887    
     85320   191.84724     -930.90589     -236.67843      4336.5713    
     85330   208.34051     -931.40453      359.96941      4333.9494    
     85340   199.18087     -931.19653      871.56931      4331.686     
     85350   187.05982     -930.9057       1176.4634      4330.2458    
     85360   205.33999     -931.46278      1156.3176      4329.8953    
     85370   196.29618     -931.26754      1013.9355      4330.627     
     85380   173.3001      -930.67867      690.39324      4332.2954    
     85390   196.38645     -931.36516      18.702027      4334.5736    
     85400   200.23925     -931.51926     -586.32736      4336.8665    
     85410   180.44952     -931.01283     -931.88014      4338.6214    
     85420   194.5719      -931.44504     -1115.8244      4339.5052    
     85430   198.68045     -931.60067     -1004.406       4339.3646    
     85440   183.54028     -931.21896     -680.26316      4338.305     
     85450   200.9699      -931.74025     -368.30419      4336.6166    
     85460   205.10686     -931.89695      106.30228      4334.615     
     85470   178.38565     -931.19396      674.8643       4332.7443    
     85480   186.9395      -931.46524      863.21888      4331.4913    
     85490   191.85313     -931.63266      789.85694      4331.0407    
     85500   177.85469     -931.26957      669.33979      4331.3361    
     85510   187.876       -931.56805      418.63702      4332.2502    
     85520   185.7673      -931.52451      125.26471      4333.5526    
     85530   164.04297     -930.92616     -144.59584      4334.9726    
     85540   180.78996     -931.38369     -468.89099      4336.246     
     85550   192.9083      -931.69766     -605.41299      4337.0928    
     85560   184.7526      -931.43817     -562.79173      4337.3866    
     85570   198.24564     -931.76892     -551.18603      4337.1505    
     85580   194.28685     -931.60143     -364.8807       4336.4194    
     85590   171.73625     -930.90858     -16.497033      4335.3713    
     85600   196.17425     -931.50359      160.15215      4334.3037    
     85610   213.33807     -931.87089      332.09581      4333.3988    
     85620   183.89808     -930.94711      639.69983      4332.8315    
     85630   200.38546     -931.30482      659.46838      4332.8474    
     85640   223.82098     -931.84861      448.6328       4333.4685    
     85650   195.24096     -930.96658      248.1275       4334.516     
     85660   186.2594      -930.64886     -83.738347      4335.7843    
     85670   204.53861     -931.09028     -457.23681      4336.9673    
     85680   189.94981     -930.62446     -610.06603      4337.7402    
     85690   188.64948     -930.53687     -694.38026      4337.9441    
     85700   200.72247     -930.82133     -588.89185      4337.5153    
     85710   202.96748     -930.83669     -213.55958      4336.5653    
     85720   218.02368     -931.21541      131.79616      4335.4233    
     85730   228.1566      -931.46961      350.32263      4334.4074    
     85740   208.65407     -930.91618      540.25012      4333.7327    
     85750   203.9852      -930.78358      560.46148      4333.5602    
     85760   206.7415      -930.86055      456.719        4333.9104    
     85770   197.07326     -930.59371      310.8018       4334.6912    
     85780   212.67929     -931.03053     -14.718973      4335.7497    
     85790   222.14187     -931.30438     -343.25922      4336.7939    
     85800   191.02858     -930.45711     -433.33928      4337.5384    
     85810   197.51833     -930.65288     -536.89933      4337.8742    
     85820   222.63106     -931.36909     -589.21102      4337.7122    
     85830   202.89847     -930.84722     -309.86946      4337.0333    
     85840   201.75305     -930.84405     -0.71526486     4336.0751    
     85850   228.94367     -931.63683      133.7818       4335.1112    
     85860   208.43485     -931.11818      327.07208      4334.292     
     85870   180.8922      -930.4021       434.93911      4333.7836    
     85880   195.78555     -930.85995      295.59633      4333.6693    
     85890   197.91027     -930.9625       201.83812      4333.8438    
     85900   187.78413     -930.72124      195.22734      4334.2207    
     85910   202.03463     -931.15529      93.518099      4334.7753    
     85920   209.91586     -931.41645     -7.2695772      4335.4219    
     85930   200.57184     -931.20384     -98.888342      4336.0661    
     85940   198.35545     -931.19047     -262.89093      4336.6137    
     85950   200.0476      -931.28762     -373.54562      4336.9217    
     85960   190.25631     -931.0642      -327.96781      4336.8972    
     85970   198.75424     -931.34706     -289.43296      4336.5683    
     85980   205.8238      -931.59439     -204.3998       4335.9784    
     85990   188.88016     -931.17445      5.2086141      4335.2168    
     86000   197.78643     -931.46974      127.3498       4334.4611    
     86010   213.82224     -931.97016      178.97753      4333.8279    
     86020   183.21562     -931.17701      289.86314      4333.3785    
     86030   166.28978     -930.75087      248.56031      4333.195     
     86040   185.07082     -931.30693      128.5449       4333.243     
     86050   181.89076     -931.24558      199.04005      4333.4347    
     86060   174.61082     -931.06123      227.80582      4333.8141    
     86070   190.32919     -931.50762      61.807306      4334.3935    
     86080   192.54313     -931.57275     -41.697748      4335.0414    
     86090   191.16244     -931.53399     -117.83578      4335.6559    
     86100   199.95028     -931.77434     -272.95808      4336.1552    
     86110   187.04216     -931.40758     -331.31841      4336.411     
     86120   185.2274      -931.34132     -307.42509      4336.3667    
     86130   205.29224     -931.87008     -239.52557      4336.0415    
     86140   198.84183     -931.65059     -62.877543      4335.5087    
     86150   190.68304     -931.3749       35.172103      4334.9176    
     86160   196.20527     -931.46391      29.396249      4334.3578    
     86170   184.85827     -931.06873      126.85141      4333.8428    
     86180   174.96711     -930.70331      273.1396       4333.4586    
     86190   195.37325     -931.16211      302.04077      4333.326     
     86200   197.38078     -931.09717      364.31965      4333.4872    
     86210   191.13941     -930.81303      379.18506      4333.9931    
     86220   215.64754     -931.38941      164.39873      4334.8389    
     86230   214.79735     -931.27249     -27.680244      4335.8469    
     86240   196.21191     -930.68604     -194.61492      4336.8358    
     86250   207.76084     -930.94794     -491.90469      4337.6323    
     86260   212.24632     -931.01972     -648.96625      4337.982     
     86270   198.17257     -930.58676     -507.34075      4337.7516    
     86280   201.69735     -930.64827     -275.062        4337.0564    
     86290   214.2801      -930.96315     -48.739937      4336.1096    
     86300   216.96647     -931.01041      183.93517      4335.1262    
     86310   215.45081     -930.95144      395.80881      4334.323     
     86320   216.15946     -930.9642       522.87204      4333.8932    
     86330   217.42761     -931.00245      510.86445      4333.951     
     86340   213.38921     -930.90367      363.46509      4334.4841    
     86350   200.22323     -930.55729      154.5959       4335.3602    
     86360   205.18965     -930.71604     -128.46703      4336.3804    
     86370   221.73012     -931.20366     -412.8309       4337.283     
     86380   201.16531     -930.66914     -501.67071      4337.8198    
     86390   184.91327     -930.25267     -520.94152      4337.8944    
     86400   201.4179      -930.74316     -523.78624      4337.4838    
     86410   207.88119     -930.95718     -327.98868      4336.6039    
     86420   202.37393     -930.84254      8.0234285      4335.434     
     86430   208.07895     -931.04351      288.39378      4334.2743    
     86440   207.00241     -931.06219      482.25573      4333.3861    
     86450   199.1847      -930.89576      615.28811      4332.9543    
     86460   215.87324     -931.41549      617.34156      4333.0961    
     86470   223.85167     -931.70757      502.19541      4333.8158    
     86480   206.83221     -931.31517      240.46273      4335.0025    
     86490   194.37762     -931.04683     -169.4292       4336.4088    
     86500   192.00015     -931.05089     -560.07085      4337.6629    
     86510   188.87256     -931.02523     -795.78978      4338.4078    
     86520   187.03222     -931.02524     -844.00917      4338.4228    
     86530   192.2401      -931.21227     -706.02392      4337.6632    
     86540   198.30467     -931.41808     -409.80346      4336.2564    
     86550   190.61075     -931.2364       36.834755      4334.4828    
     86560   181.72342     -931.01271      495.72108      4332.7508    
     86570   183.62501     -931.07859      809.03441      4331.4789    
     86580   190.04185     -931.2615       897.65539      4330.9543    
     86590   198.19447     -931.48812      804.93717      4331.2643    
     86600   197.25536     -931.46088      619.46831      4332.3298    
     86610   187.93508     -931.19815      339.71181      4333.978     
     86620   198.72883     -931.48998     -110.23683      4335.9385    
     86630   211.80346     -931.84374     -572.52365      4337.8029    
     86640   200.32995     -931.51937     -886.23503      4339.1485    
     86650   193.13175     -931.31497     -1048.1965      4339.6776    
     86660   202.89224     -931.58128     -1011.7395      4339.2386    
     86670   182.9811      -931.0209      -664.78766      4337.8779    
     86680   175.77089     -930.80696     -263.14603      4335.8972    
     86690   192.47097     -931.24518      161.55155      4333.6734    
     86700   190.36706     -931.15062      706.31483      4331.6159    
     86710   184.91985     -930.95633      1149.339       4330.2179    
     86720   193.44635     -931.14023      1248.5481      4329.8744    
     86730   191.07284     -931.01001      1071.4066      4330.6889    
     86740   208.82542     -931.42898      624.06841      4332.496     
     86750   224.57489     -931.78177      90.804159      4334.8946    
     86760   200.40854     -931.03049     -363.07389      4337.4001    
     86770   197.39839     -930.87132     -891.77957      4339.5686    
     86780   213.28648     -931.22855     -1319.8025      4340.9132    
     86790   188.45129     -930.45465     -1264.8291      4341.063     
     86800   190.21184     -930.4232      -963.57962      4340.0413    
     86810   222.90166     -931.23864     -496.35687      4338.1258    
     86820   225.57709     -931.22413      155.55126      4335.7599    
     86830   217.70893     -930.93821      722.26346      4333.5346    
     86840   224.71962     -931.08441      1010.4539      4331.9662    
     86850   208.4451      -930.60051      1130.1398      4331.3397    
     86860   199.61318     -930.33567      954.24574      4331.7567    
     86870   207.57256     -930.54206      515.97103      4333.0576    
     86880   203.18385     -930.40969      102.94272      4334.8594    
     86890   206.12151     -930.48493     -249.86888      4336.7769    
     86900   219.91757     -930.86735     -557.92537      4338.4756    
     86910   219.9853      -930.87745     -767.32928      4339.6702    
     86920   220.18908     -930.90118     -949.91633      4340.1521    
     86930   212.06542     -930.7006      -959.67423      4339.7583    
     86940   195.34265     -930.25958     -650.64979      4338.4896    
     86950   209.61402     -930.67637     -213.36935      4336.6153    
     86960   221.99826     -931.044        329.09421      4334.5466    
     86970   211.02491     -930.76823      878.58881      4332.7877    
     86980   224.03399     -931.16481      1101.3086      4331.8273    
     86990   236.54879     -931.56383      1021.0738      4331.8814    
     87000   204.06603     -930.72282      841.61884      4332.8999    
     87010   193.83155     -930.49298      336.30221      4334.6968    
     87020   212.98041     -931.07783     -405.1877       4336.8068    
     87030   196.73621     -930.67825     -869.01087      4338.5782    
     87040   189.31522     -930.51575     -1050.9032      4339.5676    
     87050   210.01599     -931.13283     -1092.3142      4339.5838    
     87060   201.23357     -930.93267     -842.31018      4338.5979    
     87070   188.69795     -930.6236      -389.21046      4336.8317    
     87080   201.56841     -931.01586      125.90107      4334.6967    
     87090   201.52221     -931.0477       710.01393      4332.6799    
     87100   201.20918     -931.07088      1117.8959      4331.3119    
     87110   219.1286      -931.60597      1137.244       4330.9617    
     87120   211.75792     -931.44793      967.87445      4331.6744    
     87130   197.48145     -931.10067      592.4474       4333.2957    
     87140   201.84193     -931.2699      -31.617498      4335.474     
     87150   198.10287     -931.2131      -638.36551      4337.6478    
     87160   184.28148     -930.86969     -1035.8058      4339.259     
     87170   193.11937     -931.14948     -1234.8949      4339.9231    
     87180   196.54743     -931.27619     -1099.7381      4339.4562    
     87190   190.54616     -931.1373      -657.04839      4337.9757    
     87200   198.52635     -931.38358     -174.05598      4335.8691    
     87210   198.132       -931.39544      307.09775      4333.5867    
     87220   185.69652     -931.06907      763.23636      4331.58      
     87230   189.07541     -931.17589      1027.3797      4330.2661    
     87240   198.70715     -931.453        1089.2869      4329.8982    
     87250   185.86095     -931.10278      1047.2472      4330.5541    
     87260   187.67256     -931.15446      707.0784       4332.1856    
     87270   208.7303      -931.73599      108.88262      4334.4856    
     87280   202.08192     -931.548       -451.00765      4336.9236    
     87290   184.658       -931.06047     -927.96809      4338.9726    
     87300   186.46811     -931.10109     -1261.2169      4340.18      
     87310   189.32078     -931.16169     -1250.0459      4340.2383    
     87320   190.50243     -931.16635     -926.87056      4339.1432    
     87330   207.95829     -931.61268     -488.9274       4337.1714    
     87340   205.06472     -931.4845       75.561821      4334.733     
     87350   193.07511     -931.09815      647.18468      4332.3472    
     87360   206.55622     -931.40761      1044.757       4330.5379    
     87370   198.71755     -931.112        1305.9721      4329.6912    
     87380   183.57088     -930.60838      1278.662       4330.0515    
     87390   217.22216     -931.44483      804.86742      4331.5912    
     87400   218.80362     -931.37741      279.77993      4333.9158    
     87410   180.44425     -930.21746     -201.34645      4336.5468    
     87420   189.66955     -930.38526     -834.8422       4339.0118    
     87430   212.54787     -930.92247     -1305.2384      4340.736     
     87440   203.89086     -930.5936      -1327.256       4341.2878    
     87450   209.13334     -930.66834     -1071.857       4340.6127    
     87460   224.66891     -931.0405      -609.57704      4338.9341    
     87470   223.36934     -930.96274     -28.40888       4336.6717    
     87480   220.47562     -930.85926      493.296        4334.3536    
     87490   220.98738     -930.86464      918.11366      4332.4712    
     87500   224.7251      -930.97303      1143.3553      4331.4233    
     87510   225.14721     -931.00523      1075.1276      4331.4245    
     87520   202.45787     -930.40496      834.68989      4332.4377    
     87530   196.42182     -930.26642      389.39513      4334.2459    
     87540   211.14918     -930.70415     -197.48805      4336.4446    
     87550   209.44312     -930.68809     -690.84842      4338.505     
     87560   211.67414     -930.7862      -1033.213       4339.9593    
     87570   214.41299     -930.90589     -1162.084       4340.4773    
     87580   198.49914     -930.51094     -988.07859      4339.9299    
     87590   198.44861     -930.55375     -608.60583      4338.4573    
     87600   218.88243     -931.16876     -139.6922       4336.3957    
     87610   211.55125     -931.01982      434.43511      4334.1856    
     87620   198.87016     -930.72187      879.92551      4332.3485    
     87630   208.25261     -931.03703      1007.8741      4331.2944    
     87640   207.48215     -931.07208      991.01694      4331.1738    
     87650   209.06997     -931.17419      830.09942      4331.985     
     87660   214.94733     -931.39929      462.33862      4333.5864    
     87670   207.86093     -931.26579     -57.652542      4335.6491    
     87680   201.76778     -931.15596     -626.78523      4337.6954    
     87690   196.70767     -931.06864     -999.22853      4339.2045    
     87700   182.3236      -930.71079     -1052.8601      4339.8232    
     87710   187.18297     -930.87469     -992.41113      4339.4643    
     87720   206.51424     -931.43524     -791.16733      4338.1708    
     87730   196.51481     -931.17877     -241.99001      4336.1385    
     87740   186.45317     -930.91427      393.59779      4333.8529    
     87750   201.57325     -931.34333      794.36741      4331.8852    
     87760   201.08495     -931.33723      995.81032      4330.6256    
     87770   188.19616     -930.9848       1029.769       4330.2802    
     87780   197.78075     -931.25366      862.22092      4330.8929    
     87790   198.02119     -931.26056      610.25363      4332.3353    
     87800   189.8908      -931.03261      223.72382      4334.3801    
     87810   201.6209      -931.35329     -309.78525      4336.67      
     87820   205.29391     -931.4495      -753.06132      4338.7248    
     87830   194.19976     -931.1366      -1035.2855      4340.1233    
     87840   203.46147     -931.38973     -1234.7939      4340.5736    
     87850   203.70565     -931.39415     -1127.3196      4339.8882    
     87860   184.57872     -930.86034     -666.20459      4338.1522    
     87870   196.81022     -931.19328     -143.88994      4335.7573    
     87880   212.39545     -931.61659      437.93477      4333.1904    
     87890   196.12776     -931.15731      1047.7538      4331.0002    
     87900   193.08344     -931.06612      1324.0241      4329.7387    
     87910   194.92737     -931.10841      1216.0914      4329.6821    
     87920   179.18331     -930.65769      885.38418      4330.7673    
     87930   186.11785     -930.82967      358.44549      4332.7029    
     87940   193.69799     -931.00884     -111.16669      4335.0301    
     87950   192.90135     -930.94823     -450.04811      4337.3172    
     87960   210.31735     -931.38812     -818.06671      4339.2246    
     87970   219.36358     -931.59432     -1070.807       4340.4076    
     87980   207.68296     -931.23208     -1051.2116      4340.6236    
     87990   205.56681     -931.14057     -844.25621      4339.863     
     88000   211.28086     -931.26611     -513.65991      4338.2991    
     88010   215.68851     -931.35614     -88.853811      4336.2291    
     88020   212.36443     -931.23445      367.95351      4334.0427    
     88030   193.02793     -930.66898      792.5023       4332.1668    
     88040   186.54303     -930.45372      1015.629       4330.9957    
     88050   202.68968     -930.85101      947.53595      4330.7456    
     88060   196.3492      -930.60566      787.80407      4331.3894    
     88070   190.20071     -930.35126      552.88636      4332.7945    
     88080   217.25319     -930.99487      150.84034      4334.7447    
     88090   227.61521     -931.15567     -253.71062      4336.8848    
     88100   205.42804     -930.42346     -547.52153      4338.8446    
     88110   213.819       -930.55315     -878.66346      4340.3243    
     88120   235.1096      -931.04548     -1088.0065      4341.0131    
     88130   227.0484      -930.74453     -982.29756      4340.7122    
     88140   215.89117     -930.38333     -651.32695      4339.4942    
     88150   223.81199     -930.56743     -218.95591      4337.6466    
     88160   230.51885     -930.73251      258.44229      4335.5654    
     88170   221.19597     -930.46978      702.13927      4333.6944    
     88180   216.32024     -930.34389      986.88618      4332.448     
     88190   223.51429     -930.56507      1041.9871      4332.102     
     88200   219.97173     -930.50117      864.10245      4332.7268    
     88210   213.81052     -930.37503      448.70562      4334.1708    
     88220   213.17364     -930.40951     -12.968824      4336.0725    
     88230   213.72383     -930.48309     -386.94076      4338.0136    
     88240   217.35795     -930.64975     -735.27837      4339.6318    
     88250   218.29611     -930.7505      -1002.6833      4340.5938    
     88260   208.58525     -930.56015     -1051.2215      4340.6436    
     88270   205.09265     -930.53961     -858.11195      4339.7196    
     88280   214.80681     -930.88573     -477.69837      4337.9825    
     88290   212.38797     -930.89371      50.045181      4335.7795    
     88300   216.49646     -931.08049      514.48544      4333.5847    
     88310   217.68799     -931.18654      904.08763      4331.8395    
     88320   201.05474     -930.79022      1215.449       4330.9226    
     88330   203.74089     -930.92037      1150.1419      4331.1154    
     88340   212.30551     -931.2104       747.20719      4332.3802    
     88350   194.14485     -930.7512       285.82549      4334.3802    
     88360   198.59553     -930.90967     -241.36094      4336.6881    
     88370   222.65061     -931.61273     -787.27011      4338.8108    
     88380   202.23565     -931.08337     -1075.8815      4340.2518    
     88390   187.26247     -930.69944     -1198.3522      4340.713     
     88400   203.67685     -931.18277     -1184.4639      4340.0571    
     88410   199.79744     -931.10122     -822.18199      4338.2996    
     88420   187.88595     -930.79213     -205.46306      4335.7593    
     88430   195.9802      -931.03326      425.64762      4332.9883    
     88440   187.05794     -930.7954       1072.8431      4330.5853    
     88450   188.074       -930.82667      1498.3571      4329.1479    
     88460   216.24621     -931.61132      1499.0419      4329.0745    
     88470   207.77702     -931.38356      1264.5022      4330.4085    
     88480   200.91442     -931.20574      705.51899      4332.9407    
     88490   213.38661     -931.56795     -103.16496      4336.1685    
     88500   202.41727     -931.28219     -858.8879       4339.3629    
     88510   195.88884     -931.12031     -1474.9872      4341.8092    
     88520   206.15333     -931.42704     -1833.9144      4342.9165    
     88530   193.59082     -931.10257     -1737.8849      4342.3398    
     88540   181.70345     -930.79479     -1268.8747      4340.1367    
     88550   180.31419     -930.77065     -480.24972      4336.7279    
     88560   182.96817     -930.84671      505.05334      4332.8389    
     88570   207.23588     -931.51496      1338.7848      4329.3667    
     88580   214.8174      -931.72106      1886.1688      4327.0956    
     88590   195.02366     -931.1738       2059.7447      4326.5515    
     88600   192.83649     -931.11833      1724.0218      4327.9084    
     88610   190.52758     -931.05644      1032.1287      4330.8919    
     88620   180.85241     -930.78182      128.51665      4334.885     
     88630   201.78975     -931.34704     -881.94162      4339.0536    
     88640   211.54415     -931.59446     -1613.7293      4342.4738    
     88650   197.24918     -931.17516     -1917.3137      4344.4499    
     88660   208.20447     -931.45881     -2012.7456      4344.6486    
     88670   207.3677      -931.41545     -1764.1989      4342.9696    
     88680   188.10629     -930.8611      -1062.0491      4339.637     
     88690   195.7699      -931.04762     -101.92558      4335.2825    
     88700   203.23118     -931.21636      951.32662      4330.7939    
     88710   189.47727     -930.7887       1869.9664      4327.1476    
     88720   187.26151     -930.6752       2373.4212      4325.1939    
     88730   204.46279     -931.09065      2378.5978      4325.4203    
     88740   222.12547     -931.51291      1879.2059      4327.8581    
     88750   214.33397     -931.23337      944.15957      4332.0735    
     88760   193.51008     -930.59859     -274.57503      4337.2205    
     88770   200.57778     -930.73501     -1505.9547      4342.1782    
     88780   216.74031     -931.11773     -2374.7985      4345.8031    
     88790   204.20644     -930.71015     -2649.7933      4347.2677    
     88800   199.18056     -930.52149     -2419.4002      4346.2739    
     88810   218.23258     -931.00461     -1757.6967      4343.0076    
     88820   212.6874      -930.80894     -582.47902      4338.0884    
     88830   201.28316     -930.45588      810.77191      4332.5925    
     88840   211.62264     -930.70622      2007.4513      4327.7981    
     88850   222.96232     -930.98831      2761.9506      4324.8205    
     88860   228.06404     -931.11365      2868.6605      4324.3672    
     88870   218.06654     -930.83951      2339.0099      4326.5673    
     88880   213.14791     -930.71941      1256.3683      4330.96      
     88890   222.13281     -930.99366     -154.68384      4336.5703    
     88900   208.34372     -930.64255     -1480.2045      4342.1131    
     88910   190.20599     -930.1705      -2477.7502      4346.3461    
     88920   207.61629     -930.68985     -2989.3264      4348.3112    
     88930   208.94373     -930.77425     -2713.1875      4347.5238    
     88940   202.59156     -930.65492     -1845.5628      4344.2028    
     88950   213.0005      -931.00996     -731.76714      4339.1246    
     88960   204.49412     -930.84634      531.81438      4333.3291    
     88970   192.07207     -930.57053      1753.3885      4327.9908    
     88980   208.24397     -931.09115      2634.0133      4324.237     
     88990   211.66486     -931.27068      3036.0657      4322.8968    
     89000   200.59443     -931.05393      2768.5542      4324.3528    
     89010   215.02024     -931.55068      1750.8845      4328.3736    
     89020   216.61016     -931.69547      381.32995      4334.0672    
     89030   197.09613     -931.24136     -1042.5188      4340.1838    
     89040   193.03469     -931.19576     -2358.5603      4345.3879    
     89050   188.75433     -931.12808     -3184.6208      4348.4476    
     89060   178.03606     -930.8675      -3242.2892      4348.5749    
     89070   185.66271     -931.10651     -2560.7075      4345.6845    
     89080   189.57238     -931.23274     -1257.6729      4340.3966    
     89090   186.10119     -931.14129      301.52705      4333.9056    
     89100   198.69304     -931.4853       1668.8353      4327.6416    
     89110   198.40917     -931.4672       2754.2583      4322.8881    
     89120   184.17956     -931.06204      3383.3316      4320.6576    
     89130   190.98668     -931.24269      3232.2109      4321.5277    
     89140   200.92029     -931.51071      2352.4718      4325.3904    
     89150   201.29077     -931.51274      942.84846      4331.4685    
     89160   201.22991     -931.49914     -758.94511      4338.4763    
     89170   190.4602      -931.18162     -2268.9968      4344.8538    
     89180   187.16414     -931.06706     -3265.1282      4349.1817    
     89190   196.69427     -931.30822     -3593.0248      4350.4991    
     89200   192.68727     -931.17648     -3090.9146      4348.4824    
     89210   191.59057     -931.12613     -1900.2849      4343.5762    
     89220   208.8194      -931.57857     -341.69248      4336.8718    
     89230   202.90855     -931.38201      1340.6235      4329.8214    
     89240   187.73678     -930.92538      2729.8282      4323.9744    
     89250   198.30169     -931.18109      3424.6009      4320.6047    
     89260   204.86266     -931.32738      3391.748       4320.3733    
     89270   188.00904     -930.82945      2733.7568      4323.2813    
     89280   186.97861     -930.76978      1455.83        4328.7384    
     89290   194.71949     -930.9406      -138.68041      4335.5947    
     89300   191.4531      -930.7927      -1631.0294      4342.3939    
     89310   202.07675     -931.02227     -2801.5203      4347.7347    
     89320   221.92197     -931.50635     -3430.6911      4350.5035    
     89330   214.13546     -931.2361      -3256.4482      4350.1024    
     89340   208.63941     -931.04622     -2413.5464      4346.6627    
     89350   212.36392     -931.11828     -1109.9426      4340.9555    
     89360   206.57413     -930.92681      480.88959      4334.1966    
     89370   200.45301     -930.72379      2017.594       4327.8587    
     89380   213.32412     -931.0477       3035.2133      4323.3477    
     89390   218.39241     -931.16294      3363.5477      4321.6123    
     89400   206.32583     -930.81713      2984.8369      4322.9732    
     89410   195.72256     -930.51973      1965.0537      4327.103     
     89420   196.42232     -930.53238      544.6483       4333.0895    
     89430   208.22669     -930.84523     -990.82352      4339.6341    
     89440   208.46181     -930.83262     -2306.1981      4345.3158    
     89450   195.00801     -930.44129     -3100.8396      4348.8993    
     89460   197.85894     -930.5042      -3221.154       4349.6215    
     89470   220.55449     -931.11982     -2671.8403      4347.346     
     89480   218.32259     -931.04836     -1469.9466      4342.5821    
     89490   208.77293     -930.77823      46.461897      4336.4334    
     89500   225.40925     -931.23769      1435.9405      4330.2927    
     89510   229.07434     -931.34983      2533.9472      4325.4568    
     89520   203.4937      -930.66922      3157.1753      4322.946     
     89530   198.103       -930.56214      2993.6858      4323.3271    
     89540   219.82693     -931.22407      2100.3929      4326.4698    
     89550   214.26902     -931.14603      900.71829      4331.5955    
     89560   193.4772      -930.64702     -437.17899      4337.6059    
     89570   197.31956     -930.82738     -1825.8751      4343.2479    
     89580   194.00288     -930.80683     -2823.3375      4347.2381    
     89590   181.02549     -930.51133     -3154.6059      4348.6351    
     89600   195.15194     -930.96622     -2833.1475      4347.1012    
     89610   205.70232     -931.32496     -1825.194       4342.9319    
     89620   198.36335     -931.18354     -350.33604      4337.0568    
     89630   203.85475     -931.39138      1141.5174      4330.8283    
     89640   207.97709     -931.55953      2367.9864      4325.6289    
     89650   194.01275     -931.22355      3099.842       4322.5955    
     89660   198.11054     -931.38926      3053.5762      4322.3967    
     89670   202.97085     -931.58049      2336.3988      4325.0163    
     89680   182.44173     -931.0615       1215.397       4329.8267    
     89690   181.63246     -931.0752      -188.75725      4335.8008    
     89700   203.39841     -931.70561     -1592.375       4341.6463    
     89710   194.9213      -931.49177     -2587.6079      4346.0664    
     89720   183.75047     -931.20069     -3076.8452      4348.1068    
     89730   186.47242     -931.29352     -2941.2942      4347.2938    
     89740   182.1651      -931.18688     -2098.3423      4343.7478    
     89750   183.04365     -931.21472     -775.28097      4338.2393    
     89760   200.39785     -931.68838      678.98636      4331.9861    
     89770   201.09875     -931.69205      2030.7435      4326.3403    
     89780   183.39023     -931.18194      2961.2786      4322.5475    
     89790   183.485       -931.16421      3135.3331      4321.4563    
     89800   185.8555      -931.20455      2658.9016      4323.2551    
     89810   183.64307     -931.11037      1693.9601      4327.5318    
     89820   192.25843     -931.3045       362.96396      4333.4109    
     89830   206.14925     -931.6298      -1024.5128      4339.679     
     89840   209.96109     -931.66803     -2165.4793      4345.0505    
     89850   198.05805     -931.27257     -2888.2291      4348.4463    
     89860   194.92933     -931.126       -3126.5332      4349.1649    
     89870   197.10943     -931.12768     -2711.0427      4346.9769    
     89880   197.5753      -931.08105     -1657.2692      4342.2617    
     89890   197.4851      -931.01439     -195.08872      4335.9923    
     89900   198.93153     -930.98388      1347.7455      4329.5205    
     89910   205.83164     -931.10103      2605.155       4324.2686    
     89920   211.81087     -931.19797      3279.7764      4321.3948    
     89930   202.33429     -930.88006      3271.5176      4321.5336    
     89940   190.51312     -930.51019      2533.1494      4324.6924    
     89950   201.93696     -930.78819      1168.9167      4330.2107    
     89960   203.99346     -930.80303     -352.66621      4336.8677    
     89970   192.81581     -930.4501      -1703.136       4343.2637    
     89980   216.41652     -931.06461     -2786.4064      4348.1178    
     89990   230.56355     -931.428       -3256.9933      4350.4152    
     90000   207.06726     -930.76766     -2977.5835      4349.6999    
     90010   213.69443     -930.95772     -2242.8006      4346.1921    
     90020   226.71671     -931.33492     -1062.7413      4340.5805    
     90030   198.39023     -930.56622      506.75732      4333.9764    
     90040   201.288       -930.65825      1893.111       4327.8078    
     90050   224.32244     -931.31081      2841.4265      4323.3587    
     90060   201.86021     -930.7075       3335.5412      4321.5261    
     90070   196.39522     -930.58022      3014.6048      4322.7517    
     90080   214.09618     -931.09998      1967.3353      4326.7645    
     90090   193.46102     -930.55306      635.07489      4332.6451    
     90100   182.16962     -930.25378     -841.97213      4339.1636    
     90110   204.80009     -930.88493     -2155.6507      4344.9535    
     90120   220.83619     -931.33371     -2928.4759      4348.7912    
     90130   224.07426     -931.44181     -3104.002       4349.9272    
     90140   214.38338     -931.20735     -2721.3115      4348.1712    
     90150   199.67202     -930.83813     -1831.8692      4343.8694    
     90160   207.66206     -931.09792     -613.88759      4337.8402    
     90170   198.02332     -930.86254      884.96311      4331.2304    
     90180   180.33193     -930.39005      2314.6111      4325.4231    
     90190   205.02131     -931.08802      3120.0529      4321.7129    
     90200   214.14641     -931.36015      3327.2596      4320.8677    
     90210   191.40388     -930.75425      2974.327       4323.103     
     90220   205.74193     -931.18009      1827.8704      4328.0899    
     90230   218.29798     -931.55676      182.74994      4334.804     
     90240   203.54527     -931.17316     -1459.3154      4341.7522    
     90250   204.82896     -931.23282     -2801.4883      4347.4012    
     90260   198.03004     -931.06978     -3519.7415      4350.4877    
     90270   181.70484     -930.64209     -3484.0961      4350.3156    
     90280   198.34998     -931.13052     -2803.4981      4346.8867    
     90290   200.17761     -931.20672     -1435.3062      4340.8409    
     90300   179.00799     -930.63364      394.87097      4333.4517    
     90310   194.72393     -931.07078      2075.6213      4326.3908    
     90320   208.06031     -931.43554      3299.387       4321.2152    
     90330   194.89198     -931.0688       3862.03        4319.0607    
     90340   203.26375     -931.30875      3493.1009      4320.4434    
     90350   212.47644     -931.57966      2337.6449      4325.0575    
     90360   196.94522     -931.16542      763.96015      4331.8804    
     90370   192.91005     -931.06379     -956.85215      4339.4723    
     90380   194.13544     -931.09837     -2451.4945      4346.2431    
     90390   196.89338     -931.17148     -3457.368       4350.7822    
     90400   210.11761     -931.54135     -3801.942       4352.1233    
     90410   206.35254     -931.45263     -3330.7396      4349.9284    
     90420   189.43362     -931.00632     -2132.4221      4344.6223    
     90430   192.13593     -931.10214     -559.47342      4337.3036    
     90440   190.08077     -931.05667      1148.8544      4329.4396    
     90450   182.13904     -930.8377       2712.7561      4322.6151    
     90460   188.33482     -931.00552      3796.1044      4318.2698    
     90470   191.53581     -931.09031      4117.2063      4317.4016    
     90480   191.49584     -931.08812      3500.7199      4320.3155    
     90490   200.5096      -931.33524      2076.663       4326.4772    
     90500   209.19468     -931.56509      224.32136      4334.6145    
     90510   206.30005     -931.46508     -1685.3181      4343.0307    
     90520   201.78494     -931.31537     -3319.2167      4349.9413    
     90530   204.01781     -931.35548     -4279.5709      4353.8055    
     90540   197.97976     -931.17558     -4260.2102      4353.7055    
     90550   185.74547     -930.83054     -3287.3375      4349.6338    
     90560   194.62326     -931.06718     -1659.7692      4342.4787    
     90570   211.83395     -931.52273      310.71436      4333.7557    
     90580   201.59044     -931.20699      2302.4891      4325.3       
     90590   184.51487     -930.69693      3856.5023      4318.9444    
     90600   201.14267     -931.12305      4505.8038      4316.1036    
     90610   200.31533     -931.06989      4217.7008      4317.3964    
     90620   185.8544      -930.6456       3023.5884      4322.5834    
     90630   202.31642     -931.0739       1065.5342      4330.5916    
     90640   210.17122     -931.24801     -1107.0104      4339.654     
     90650   195.25274     -930.78264     -2933.1518      4347.7701    
     90660   199.07351     -930.83675     -4098.8113      4353.2145    
     90670   212.62378     -931.16565     -4400.4741      4354.8668    
     90680   216.47023     -931.23928     -3784.8613      4352.4189    
     90690   215.23315     -931.18601     -2400.6772      4346.4303    
     90700   209.05475     -930.99983     -530.8748       4338.189     
     90710   204.3118      -930.84922      1455.4067      4329.4337    
     90720   199.13732     -930.68039      3183.111       4322.0042    
     90730   201.80218     -930.72933      4232.8882      4317.4831    
     90740   214.65022     -931.07103      4373.112       4316.8365    
     90750   213.36134     -931.03645      3677.96        4320.2213    
     90760   201.34191     -930.71416      2192.7245      4327.0216    
     90770   209.83329     -930.95907      32.462838      4335.8826    
     90780   211.04136     -930.9948      -2191.1583      4344.8369    
     90790   191.20214     -930.44217     -3816.5283      4351.8283    
     90800   199.05243     -930.66188     -4629.2441      4355.3015    
     90810   213.16967     -931.06905     -4442.7169      4354.4709    
     90820   198.77872     -930.69887     -3231.8109      4349.5003    
     90830   196.34899     -930.66219     -1363.6504      4341.5041    
     90840   210.28925     -931.07322      790.21807      4332.2249    
     90850   208.73199     -931.04892      2844.6034      4323.6649    
     90860   212.91232     -931.19012      4255.6508      4317.7027    
     90870   215.37649     -931.30439      4750.8826      4315.635     
     90880   204.43913     -931.06933      4249.5863      4317.9293    
     90890   211.27758     -931.34436      2734.5264      4324.141     
     90900   215.93871     -931.57003      593.14124      4332.9161    
     90910   189.18531     -930.91396     -1618.1645      4342.309     
     90920   181.61319     -930.76877     -3582.5842      4350.2506    
     90930   192.08471     -931.11875     -4833.2294      4354.8933    
     90940   179.63429     -930.83328     -4871.4638      4355.0629    
     90950   178.84154     -930.86884     -3784.4947      4350.695     
     90960   196.62419     -931.41462     -1921.4699      4342.7897    
     90970   191.54684     -931.31025      408.56699      4333.0958    
     90980   188.51771     -931.24246      2642.5459      4323.7678    
     90990   200.0791      -931.56944      4271.4883      4316.8567    
     91000   196.24754     -931.47249      5033.286       4313.8595    
     91010   195.83957     -931.48144      4681.9725      4315.4706    
     91020   205.57287     -931.78171      3244.958       4321.3854    
     91030   188.90533     -931.34491      1179.9066      4330.3332    
     91040   186.48063     -931.28622     -1179.2661      4340.4242    
     91050   205.84541     -931.81599     -3382.5625      4349.4707    
     91060   190.57143     -931.38024     -4797.7148      4355.4189    
     91070   169.68633     -930.79331     -5174.4674      4356.9145    
     91080   187.78823     -931.29354     -4506.139       4353.5775    
     91090   193.70048     -931.45154     -2756.6122      4346.048     
     91100   180.73826     -931.07235     -336.64709      4335.9613    
     91110   184.39576     -931.13062      2117.8311      4325.5599    
     91120   197.0975      -931.417        4134.2195      4317.1098    
     91130   189.30436     -931.12759      5351.4338      4312.4581    
     91140   192.83096     -931.16023      5328.5979      4312.6949    
     91150   210.35937     -931.58351      4075.1546      4317.8131    
     91160   206.23746     -931.40254      2035.7641      4326.7105    
     91170   194.86697     -931.01207     -414.64392      4337.5344    
     91180   204.37489     -931.18314     -2884.8355      4348.0167    
     91190   209.10375     -931.21014     -4734.4256      4355.8575    
     91200   190.92689     -930.61535     -5474.8346      4359.314     
     91210   198.79346     -930.76549     -5114.5065      4357.6564    
     91220   216.28304     -931.19504     -3665.3339      4351.2274    
     91230   206.13992     -930.86732     -1326.875       4341.4042    
     91240   197.90533     -930.59218      1324.9601      4330.3706    
     91250   220.10083     -931.15664      3602.642       4320.5701    
     91260   220.02563     -931.11342      5103.8325      4314.0932    
     91270   204.12255     -930.65714      5475.0247      4312.2934    
     91280   201.59861     -930.59459      4648.3172      4315.5059    
     91290   197.9422      -930.50868      2915.2544      4323.0012    
     91300   203.78713     -930.68029      573.48857      4333.2063    
     91310   216.91367     -931.04229     -1920.2209      4343.9716    
     91320   209.73359     -930.83443     -3942.033       4352.9906    
     91330   209.72496     -930.83224     -5193.0867      4358.347     
     91340   210.83143     -930.87928     -5370.913       4358.8585    
     91350   193.00582     -930.41596     -4292.2031      4354.3716    
     91360   202.6072      -930.71553     -2328.9486      4345.8966    
     91370   233.03469     -931.58913      98.110123      4335.2845    
     91380   222.64218     -931.32833      2649.0362      4324.815     
     91390   204.56543     -930.85266      4577.2809      4316.8122    
     91400   213.70734     -931.14481      5330.1992      4313.0075    
     91410   199.20182     -930.79766      5013.956       4314.0967    
     91420   190.31175     -930.61326      3631.1852      4319.7813    
     91430   205.94746     -931.1069       1395.554       4328.8006    
     91440   197.46429     -930.91824     -1008.7058      4339.1312    
     91450   181.7576      -930.50806     -3081.1432      4348.5497    
     91460   203.05137     -931.11738     -4597.951       4355.0977    
     91470   205.54204     -931.21419     -5122.609       4357.362     
     91480   190.94794     -930.84979     -4517.7399      4354.8547    
     91490   202.53635     -931.21844     -2985.8164      4348.1513    
     91500   212.50919     -931.54153     -774.11963      4338.713     
     91510   194.88836     -931.08643      1662.4334      4328.6145    
     91520   197.07655     -931.16876      3616.3582      4320.0854    
     91530   205.53106     -931.42641      4778.0617      4314.9107    
     91540   198.09208     -931.25514      4969.6275      4314.1341    
     91550   194.71921     -931.20887      4020.3172      4317.902     
     91560   192.36809     -931.19255      2199.9113      4325.3521    
     91570   185.75194     -931.04425      3.9677074      4334.8312    
     91580   197.77325     -931.39659     -2210.6031      4344.3051    
     91590   204.20945     -931.58668     -3922.2119      4351.7214    
     91600   189.99333     -931.2075      -4719.3259      4355.4854    
     91610   185.40723     -931.10392     -4578.3514      4354.8422    
     91620   188.00762     -931.20494     -3525.3045      4349.9425    
     91630   183.97306     -931.11603     -1652.1375      4341.8102    
     91640   185.411       -931.16229      603.71497      4332.2076    
     91650   190.08551     -931.27823      2728.9483      4323.2274    
     91660   199.34387     -931.5107       4279.8315      4316.8114    
     91670   205.86684     -931.67102      4890.9563      4314.3482    
     91680   198.65644     -931.46249      4391.5939      4316.3645    
     91690   184.66065     -931.06954      2944.802       4322.3959    
     91700   193.50913     -931.29817      819.95572      4331.1091    
     91710   197.24069     -931.35938     -1403.6642      4340.5613    
     91720   183.33693     -930.90993     -3170.7628      4348.7013    
     91730   192.40864     -931.08346     -4288.9953      4353.8669    
     91740   213.56434     -931.58031     -4561.1717      4355.0183    
     91750   205.81608     -931.27708     -3792.4151      4351.9363    
     91760   193.34104     -930.85103     -2222.0655      4345.3628    
     91770   205.96381     -931.11386     -289.39386      4336.782     
     91780   212.84407     -931.20485      1715.0545      4328.013     
     91790   196.06455     -930.64237      3476.1594      4320.9101    
     91800   202.78952     -930.74455      4386.1034      4317.0397    
     91810   216.56974     -931.05582      4294.5268      4317.2048    
     91820   203.08434     -930.63129      3331.5456      4321.3042    
     91830   196.89277     -930.42177      1600.0456      4328.4307    
     91840   207.87801     -930.68504     -474.26617      4336.9911    
     91850   199.93283     -930.41687     -2238.9902      4345.0881    
     91860   200.77579     -930.39407     -3430.7488      4351.0752    
     91870   233.65745     -931.26947     -4001.2549      4353.8326    
     91880   237.24131     -931.35601     -3721.0082      4352.8621    
     91890   221.73192     -930.94116     -2690.6724      4348.4534    
     91900   222.58812     -930.99598     -1192.9464      4341.5954    
     91910   215.27587     -930.82843      566.12075      4333.7167    
     91920   206.77002     -930.62668      2180.5837      4326.4463    
     91930   201.50637     -930.51467      3338.1136      4321.2566    
     91940   199.42539     -930.49407      3846.3068      4319.1823    
     91950   208.99073     -930.80657      3506.2747      4320.6435    
     91960   208.46557     -930.8488       2382.8491      4325.2996    
     91970   192.89631     -930.47093      782.80379      4332.1083    
     91980   199.96101     -930.71043     -986.17197      4339.5836    
     91990   219.258       -931.28822     -2500.7922      4346.0924    
     92000   202.42522     -930.86712     -3337.9277      4350.2484    
     92010   198.23344     -930.80021     -3536.4752      4351.2715    
     92020   215.56351     -931.34065     -3113.3314      4349.0037    
     92030   207.98839     -931.19742     -1968.0605      4343.897     
     92040   198.02641     -930.98282     -345.50638      4337.0505    
     92050   203.24211     -931.17915      1328.248       4329.9796    
     92060   206.28196     -931.30863      2666.688       4324.22      
     92070   204.73653     -931.31004      3396.0031      4320.9748    
     92080   204.0383      -931.33923      3378.7635      4320.8733    
     92090   190.55963     -931.0126       2651.6849      4323.8649    
     92100   188.64808     -930.99786      1295.6979      4329.2462    
     92110   193.87248     -931.16839     -332.38473      4335.7595    
     92120   187.5553      -931.00435     -1766.5224      4341.9087    
     92130   189.40756     -931.05771     -2738.7171      4346.3684    
     92140   194.4558      -931.19677     -3030.4058      4348.2578    
     92150   195.12496     -931.21539     -2659.4712      4347.3318    
     92160   202.02048     -931.40877     -1891.0317      4343.9565    
     92170   202.33736     -931.41989     -843.95367      4338.8846    
     92180   192.59969     -931.14813      420.29496      4333.1244    
     92190   198.4454      -931.30387      1606.127       4327.844     
     92200   193.51943     -931.15738      2493.2491      4324.1224    
     92210   175.83494     -930.6543       2892.2821      4322.7428    
     92220   197.35767     -931.23822      2619.2197      4324.0218    
     92230   218.96628     -931.82523      1857.2629      4327.6854    
     92240   202.63682     -931.36472      763.54094      4333.01      
     92250   206.11049     -931.45623     -703.05334      4338.9468    
     92260   208.49557     -931.51638     -2077.9538      4344.1539    
     92270   184.57283     -930.84626     -2868.7037      4347.3895    
     92280   188.46003     -930.94828     -3049.6142      4347.9342    
     92290   202.62916     -931.33594     -2582.0916      4345.6635    
     92300   180.14464     -930.70433     -1475.9561      4341.0685    
     92310   177.51241     -930.61534     -129.66561      4335.1964    
     92320   203.7125      -931.31273      1192.8236      4329.31      
     92330   196.27693     -931.06834      2419.3018      4324.6394    
     92340   194.56502     -930.98515      3097.315       4322.2601    
     92350   215.82654     -931.54335      2990.7577      4322.7377    
     92360   209.61346     -931.34697      2299.7123      4325.9448    
     92370   193.28106     -930.87649      1141.1573      4331.2068    
     92380   198.32388     -930.99465     -325.64635      4337.4282    
     92390   216.77972     -931.47838     -1774.9126      4343.2496    
     92400   214.56567     -931.39141     -2756.3368      4347.3551    
     92410   203.95993     -931.08289     -3080.5122      4348.8616    
     92420   196.29987     -930.86331     -2732.0145      4347.5105    
     92430   204.28431     -931.08052     -1865.0667      4343.6696    
     92440   205.20098     -931.10003     -626.67147      4338.1943    
     92450   193.50874     -930.76543      694.81829      4332.255     
     92460   191.03082     -930.67916      1786.4345      4327.0675    
     92470   193.16563     -930.71206      2522.0916      4323.6185    
     92480   191.79499     -930.63936      2868.9685      4322.5515    
     92490   200.36528     -930.83297      2655.1436      4324.1259    
     92500   216.17659     -931.2132       1816.7371      4328.0917    
     92510   223.92295     -931.35611      571.51345      4333.6484    
     92520   211.18506     -930.92359     -733.19962      4339.6413    
     92530   212.37532     -930.87344     -1944.5303      4344.8522    
     92540   217.77916     -930.93535     -2758.931       4348.1831    
     92550   214.59819     -930.76491     -2929.3624      4348.9216    
     92560   217.16421     -930.76451     -2487.755       4346.954     
     92570   228.29732     -931.01118     -1564.9388      4342.7399    
     92580   211.93409     -930.5047      -255.6701       4337.1895    
     92590   196.38639     -930.02748      1056.6485      4331.5235    
     92600   216.26436     -930.53228      2047.2457      4326.9385    
     92610   225.17201     -930.73696      2660.3346      4324.3254    
     92620   207.67594     -930.22404      2793.8118      4324.2022    
     92630   219.12753     -930.52834      2245.1485      4326.623     
     92640   231.19329     -930.86089      1249.7261      4331.0546    
     92650   214.4331      -930.40564      40.818353      4336.5569    
     92660   211.39364     -930.33838     -1272.2051      4341.9903    
     92670   216.37036     -930.49954     -2292.6291      4346.1614    
     92680   220.79084     -930.65915     -2772.3196      4348.1534    
     92690   219.85343     -930.68905     -2615.1461      4347.5649    
     92700   215.93208     -930.65329     -1896.4639      4344.5897    
     92710   217.11211     -930.77078     -864.19764      4339.9331    
     92720   226.42685     -931.12743      261.40173      4334.5797    
     92730   211.73609     -930.82532      1439.5733      4329.594     
     92740   195.14696     -930.45918      2329.1312      4326.0336    
     92750   211.13775     -930.99334      2549.8144      4324.6572    
     92760   211.50233     -931.09454      2272.9462      4325.6413    
     92770   200.28109     -930.86463      1615.2155      4328.6938    
     92780   206.74339     -931.11456      569.08702      4333.1653    
     92790   201.72695     -931.03411     -592.23715      4338.0822    
     92800   196.04976     -930.92055     -1619.4387      4342.3731    
     92810   210.0429      -931.34811     -2351.1412      4345.0972    
     92820   192.5858      -930.90003     -2463.105       4345.6252    
     92830   177.83627     -930.51796     -2018.9088      4343.8865    
     92840   206.16374     -931.32605     -1249.652       4340.3215    
     92850   208.09488     -931.39961     -123.07012      4335.6952    
     92860   185.57486     -930.78886      1060.931       4331.0573    
     92870   204.71121     -931.3305       1813.7558      4327.4651    
     92880   207.59585     -931.42225      2231.7053      4325.6077    
     92890   187.88542     -930.88881      2283.3594      4325.8354    
     92900   203.44419     -931.33518      1735.9325      4328.137     
     92910   216.58667     -931.71705      791.36421      4331.9881    
     92920   201.71463     -931.32434     -238.225        4336.5122    
     92930   200.14976     -931.30106     -1255.0135      4340.7441    
     92940   198.13532     -931.2647      -2042.6903      4343.7541    
     92950   179.69499     -930.76951     -2352.2669      4344.8438    
     92960   178.3195      -930.74238     -2154.1576      4343.7554    
     92970   189.66009     -931.06102     -1437.9543      4340.7148    
     92980   190.62257     -931.08278     -319.6974       4336.4224    
     92990   198.73599     -931.29581      797.75943      4331.9127    
     93000   203.40281     -931.40839      1657.4742      4328.2108    
     93010   200.11728     -931.30031      2149.8122      4326.0918    
     93020   203.374       -931.37654      2175.9619      4325.9757    
     93030   197.7032      -931.2065       1734.9358      4327.8538    
     93040   192.54672     -931.04886      924.76484      4331.2952    
     93050   205.52338     -931.38884     -83.362506      4335.5367    
     93060   203.66549     -931.31162     -973.5575       4339.6541    
     93070   193.15356     -930.99168     -1658.3861      4342.8225    
     93080   204.62541     -931.27874     -2148.0033      4344.4084    
     93090   200.40313     -931.12684     -2144.363       4344.0016    
     93100   185.13661     -930.66674     -1556.1499      4341.6435    
     93110   192.17612     -930.81577     -620.87064      4337.8962    
     93120   207.17376     -931.1685       433.25588      4333.6421    
     93130   214.88987     -931.30829      1360.444       4329.8532    
     93140   214.31824     -931.21781      2005.7682      4327.3733    
     93150   208.05851     -930.97489      2182.7075      4326.7674    
     93160   211.89038     -931.01765      1744.2059      4328.1583    
     93170   203.79983     -930.73216      955.06544      4331.1353    
     93180   187.54465     -930.22174      97.520099      4334.9675    
     93190   201.68028     -930.54919     -764.85659      4338.8475    
     93200   217.48363     -930.91501     -1459.4077      4341.9807    
     93210   206.70204     -930.5487      -1765.1557      4343.7451    
     93220   221.86238     -930.91369     -1786.428       4343.8567    
     93230   228.76037     -931.05966     -1416.9016      4342.328     
     93240   208.36851     -930.46418     -685.6176       4339.5265    
     93250   216.4736      -930.66889      80.973896      4336.1273    
     93260   240.45244     -931.32434      761.68853      4332.8458    
     93270   215.71555     -930.64458      1443.8461      4330.3274    
     93280   200.46864     -930.23864      1766.2247      4329.1651    
     93290   219.85047     -930.80227      1536.7633      4329.6251    
     93300   216.93583     -930.75836      1034.4965      4331.5013    
     93310   207.03865     -930.53035      358.08465      4334.3167    
     93320   210.81332     -930.68879     -424.60983      4337.4347    
     93330   209.15123     -930.70487     -1076.1632      4340.1396    
     93340   197.68908     -930.45342     -1453.2742      4341.8353    
     93350   200.5473      -930.60275     -1563.4146      4342.1749    
     93360   211.06746     -930.973       -1327.7529      4341.0759    
     93370   211.24176     -931.06563     -740.04146      4338.7774    
     93380   205.40327     -930.99494      3.5104063      4335.8274    
     93390   201.79193     -930.98293      732.61901      4332.917     
     93400   201.03714     -931.04374      1289.2001      4330.7146    
     93410   207.7909      -931.30625      1501.9776      4329.7181    
     93420   225.20904     -931.86638      1307.5895      4330.1074    
     93430   209.95645     -931.51831      904.02513      4331.7068    
     93440   181.81471     -930.79166      298.24689      4334.1292    
     93450   194.22448     -931.17213     -521.51375      4336.7963    
     93460   193.83667     -931.18526     -1078.4971      4338.9802    
     93470   173.34596     -930.62749     -1233.9233      4340.1729    
     93480   192.13013     -931.15125     -1256.8523      4340.2097    
     93490   205.84662     -931.53048     -1028.4364      4339.0917    
     93500   186.21219     -930.98279     -494.96988      4337.0495    
     93510   188.70326     -931.04579      76.333215      4334.5674    
     93520   198.8586      -931.31555      633.75546      4332.1826    
     93530   198.54104     -931.29239      1097.4167      4330.4098    
     93540   204.71329     -931.45105      1286.1486      4329.6607    
     93550   198.24173     -931.26103      1245.3283      4330.1087    
     93560   185.39876     -930.89308      960.82855      4331.7069    
     93570   210.06322     -931.56377      313.41869      4334.1687    
     93580   215.00267     -931.68732     -371.22915      4336.9125    
     93590   184.07523     -930.81833     -872.65973      4339.3133    
     93600   195.54046     -931.12449     -1303.2821      4340.8873    
     93610   209.50879     -931.49684     -1417.7239      4341.2568    
     93620   185.19197     -930.80672     -1101.6561      4340.3331    
     93630   195.02172     -931.06266     -713.70427      4338.3888    
     93640   215.11347     -931.59878     -247.54731      4335.7981    
     93650   188.31656     -930.8332       451.54957      4333.0199    
     93660   183.107       -930.66464      1040.1572      4330.6787    
     93670   205.08881     -931.2421       1357.358       4329.3094    
     93680   198.48117     -931.02152      1456.5823      4329.2086    
     93690   192.06721     -930.80673      1201.2829      4330.4498    
     93700   211.84177     -931.31482      591.03618      4332.7858    
     93710   205.39563     -931.09208     -35.820037      4335.6723    
     93720   194.29357     -930.74204     -649.07618      4338.5189    
     93730   210.85698     -931.15683     -1218.1995      4340.7497    
     93740   218.88485     -931.3336      -1445.1035      4341.8584    
     93750   211.93053     -931.10307     -1295.6213      4341.6375    
     93760   205.72734     -930.90041     -917.86557      4340.2219    
     93770   209.75202     -930.98433     -438.68051      4337.964     
     93780   212.17796     -931.02608      80.000558      4335.3139    
     93790   200.49003     -930.67856      647.17583      4332.7629    
     93800   201.06708     -930.67183      1125.5519      4330.8303    
     93810   212.59847     -930.96824      1336.8051      4329.9457    
     93820   208.52033     -930.83421      1249.7533      4330.3001    
     93830   200.56115     -930.596        893.9908       4331.8098    
     93840   206.23496     -930.73612      326.21769      4334.1421    
     93850   203.46103     -930.63991     -307.43579      4336.7741    
     93860   195.56264     -930.39924     -851.93981      4339.1223    
     93870   207.9377      -930.71798     -1191.0809      4340.6827    
     93880   216.65438     -930.93339     -1183.396       4341.1509    
     93890   221.89359     -931.05822     -904.83551      4340.5305    
     93900   230.47831     -931.2876      -504.97521      4339.0759    
     93910   225.80418     -931.16561     -69.627269      4337.161     
     93920   218.78713     -930.99627      300.93785      4335.1885    
     93930   214.48468     -930.91819      568.7092       4333.5037    
     93940   201.96865     -930.62331      719.76501      4332.3557    
     93950   198.63791     -930.58967      705.14029      4331.8786    
     93960   198.12125     -930.63978      642.56315      4332.0667    
     93970   189.82433     -930.47375      580.10479      4332.8649    
     93980   198.32275     -930.77351      343.87829      4334.1973    
     93990   212.71983     -931.24349     -55.386323      4335.8427    
     94000   203.38263     -931.0605      -443.80893      4337.4409    
     94010   195.31266     -930.9095      -747.79477      4338.6314    
     94020   204.63754     -931.24159     -894.61102      4339.1328    
     94030   196.50518     -931.08645     -753.34774      4338.8215    
     94040   197.09017     -931.16742     -499.68594      4337.8149    
     94050   209.23595     -931.56825     -199.05706      4336.3491    
     94060   203.24814     -931.46525      183.08838      4334.7123    
     94070   194.61689     -931.28255      497.54419      4333.2511    
     94080   196.98089     -931.39948      652.2723       4332.2519    
     94090   186.81515     -931.16015      728.00334      4331.8676    
     94100   187.53023     -931.21314      628.05686      4332.1587    
     94110   199.92677     -931.58514      371.11195      4333.032     
     94120   189.97748     -931.3323       122.42045      4334.2613    
     94130   177.02377     -930.98752     -164.15088      4335.6078    
     94140   186.58144     -931.25815     -509.06808      4336.7984    
     94150   193.58797     -931.4503      -692.61131      4337.5284    
     94160   190.28005     -931.35171     -640.88658      4337.6307    
     94170   192.4665      -931.40186     -461.48469      4337.1445    
     94180   198.13798     -931.54475     -217.14537      4336.2353    
     94190   200.35546     -931.59034      4.172668       4335.1254    
     94200   184.40117     -931.12959      220.2106       4334.0257    
     94210   173.42064     -930.80056      412.60264      4333.1376    
     94220   193.83123     -931.33197      475.09023      4332.6316    
     94230   204.38637     -931.57992      477.7035       4332.5731    
     94240   188.5917      -931.09501      485.11012      4332.9713    
     94250   195.14941     -931.22825      359.68572      4333.8204    
     94260   217.44786     -931.79134      98.878324      4335.0029    
     94270   206.19843     -931.42483     -146.91008      4336.2883    
     94280   191.7356      -930.97548     -422.6528       4337.4401    
     94290   200.60348     -931.17133     -714.24754      4338.1978    
     94300   200.68641     -931.11905     -770.9742       4338.3081    
     94310   185.15754     -930.63281     -530.83371      4337.7224    
     94320   192.91633     -930.78865     -251.10688      4336.644     
     94330   213.59912     -931.29374     -31.146274      4335.3273    
     94340   201.69548     -930.89477      289.98114      4333.9964    
     94350   195.59375     -930.66352      571.03827      4332.9393    
     94360   208.55867     -930.9612       712.49377      4332.4121    
     94370   206.07344     -930.83236      755.94805      4332.5538    
     94380   207.11445     -930.80943      599.86104      4333.3972    
     94390   224.37081     -931.2441       247.04553      4334.7962    
     94400   219.27423     -931.07113     -79.084862      4336.4411    
     94410   202.96752     -930.60041     -385.29859      4338.0238    
     94420   209.723       -930.77678     -738.98207      4339.2472    
     94430   214.26594     -930.89762     -909.54499      4339.7974    
     94440   206.84644     -930.69334     -813.3083       4339.5188    
     94450   213.93427     -930.89779     -593.15341      4338.4866    
     94460   217.0642      -930.99853     -229.64427      4336.9108    
     94470   204.94844     -930.67944      198.40984      4335.1276    
     94480   204.94981     -930.69629      499.84815      4333.5217    
     94490   208.33314     -930.80628      714.47523      4332.3827    
     94500   204.91071     -930.72686      843.29825      4331.9133    
     94510   209.0143      -930.85737      777.26773      4332.2258    
     94520   205.81504     -930.78631      574.91689      4333.2668    
     94530   196.6256      -930.5471       278.65536      4334.8523    
     94540   212.15238     -930.99304     -190.34592      4336.6973    
     94550   223.54199     -931.33016     -653.03117      4338.3757    
     94560   204.85973     -930.83855     -868.31445      4339.472     
     94570   206.48123     -930.91369     -942.95446      4339.7679    
     94580   208.3858      -930.99945     -817.47041      4339.1962    
     94590   196.85614     -930.71207     -457.81744      4337.8763    
     94600   207.52081     -931.04021     -65.22379       4336.1276    
     94610   219.43892     -931.40946      304.30095      4334.3147    
     94620   197.24734     -930.83535      709.18677      4332.7935    
     94630   193.4109      -930.76767      875.62369      4331.92      
     94640   207.09726     -931.18687      782.66033      4331.8522    
     94650   197.83572     -930.96909      621.99944      4332.5231    
     94660   201.1269      -931.09923      375.7295       4333.7821    
     94670   212.51256     -931.45772      27.999935      4335.3991    
     94680   198.50576     -931.11385     -360.03342      4337.0541    
     94690   190.02778     -930.91966     -771.18739      4338.3811    
     94700   197.71512     -931.17174     -1042.8128      4339.0022    
     94710   187.47078     -930.92202     -939.90977      4338.6782    
     94720   183.97731     -930.85269     -576.87755      4337.4908    
     94730   197.87117     -931.26092     -156.16784      4335.7618    
     94740   199.39957     -931.32333      305.46527      4333.8865    
     94750   198.95831     -931.33059      727.90592      4332.2928    
     94760   203.20192     -931.4691       981.03057      4331.3696    
     94770   202.20075     -931.46437      960.87068      4331.3497    
     94780   197.73348     -931.36602      711.75191      4332.2223    
     94790   190.04117     -931.17643      383.9938       4333.7721    
     94800   199.29994     -931.4555      -33.657685      4335.6922    
     94810   209.2212      -931.75561     -499.47071      4337.5951    
     94820   190.84666     -931.27331     -898.51488      4339.0499    
     94830   177.08026     -930.91461     -1162.4749      4339.6812    
     94840   191.10485     -931.32353     -1213.9884      4339.2375    
     94850   178.14126     -930.97749     -834.29215      4337.6848    
     94860   163.1447      -930.56381     -205.80339      4335.3589    
     94870   192.68804     -931.37244      407.7142       4332.8268    
     94880   209.67904     -931.82007      993.54236      4330.6669    
     94890   189.12221     -931.22155      1417.3194      4329.4238    
     94900   195.18446     -931.35768      1401.9386      4329.4758    
     94910   210.58645     -931.74186      1054.4381      4330.8293    
     94920   207.03614     -931.59404      515.71311      4333.1793    
     94930   197.02292     -931.26392     -145.43509      4336.0312    
     94940   187.95366     -930.95242     -777.31732      4338.7772    
     94950   195.08042     -931.07883     -1248.5314      4340.829     
     94960   213.70227     -931.51136     -1469.8085      4341.7396    
     94970   202.12393     -931.10389     -1339.4187      4341.3007    
     94980   193.42512     -930.78326     -1020.7362      4339.6093    
     94990   206.02329     -931.05221     -523.20632      4336.9575    
     95000   195.43362     -930.67685      294.03941      4333.8241    
     95010   185.26865     -930.31899      1095.3766      4330.9492    
     95020   214.63093     -931.05692      1475.4252      4329.0526    
     95030   210.40372     -930.86596      1665.7393      4328.5249    
     95040   203.02725     -930.60496      1561.3799      4329.5451    
     95050   220.05312     -931.03102      1026.5069      4332.0183    
     95060   215.45623     -930.86668      249.12838      4335.4734    
     95070   209.94548     -930.68808     -648.46776      4339.1959    
     95080   225.71374     -931.10911     -1480.3022      4342.3518    
     95090   216.63845     -930.85249     -1865.5525      4344.1796    
     95100   204.96759     -930.53518     -1861.1151      4344.2913    
     95110   215.21594     -930.83403     -1597.7929      4342.6622    
     95120   215.79667     -930.87284     -938.01576      4339.5407    
     95130   206.87168     -930.65321      46.759428      4335.5351    
     95140   210.42752     -930.7831       1004.7595      4331.5391    
     95150   212.82953     -930.88549      1744.9944      4328.4432    
     95160   212.9107      -930.93229      2111.5921      4326.9382    
     95170   204.39607     -930.74798      2019.2981      4327.3783    
     95180   203.54049     -930.77973      1408.1552      4329.6922    
     95190   210.8594      -931.04255      435.51226      4333.3396    
     95200   198.57841     -930.76098     -551.9428       4337.4483    
     95210   185.87571     -930.45907     -1332.8134      4341.1063    
     95220   194.39026     -930.73896     -1814.5023      4343.5724    
     95230   202.35616     -931.0022      -1926.7222      4344.3787    
     95240   209.94879     -931.25741     -1684.677       4343.3978    
     95250   223.2459      -931.68084     -1142.9515      4340.8342    
     95260   207.45317     -931.30243     -298.77417      4337.1898    
     95270   197.34591     -931.07687      555.34033      4333.2272    
     95280   206.63686     -931.38574      1266.5886      4329.7383    
     95290   199.56106     -931.23695      1824.7968      4327.4001    
     95300   193.17183     -931.10113      1990.0789      4326.7293    
     95310   199.96385     -931.32756      1667.2248      4327.8936    
     95320   190.05261     -931.08382      1037.9833      4330.6311    
     95330   186.90082     -931.01772      133.93876      4334.3716    
     95340   191.94445     -931.16937     -845.09706      4338.291     
     95350   179.06246     -930.81283     -1557.0629      4341.4929    
     95360   190.01018     -931.1108      -1957.9085      4343.2899    
     95370   207.13459     -931.57897     -1951.6115      4343.2873    
     95380   184.27263     -930.9376      -1425.5871      4341.4788    
     95390   192.82001     -931.16679     -697.74888      4338.3102    
     95400   213.98093     -931.74322      174.53602      4334.4535    
     95410   194.82169     -931.20086      1167.1874      4330.7276    
     95420   201.90071     -931.38858      1804.2976      4328.0291    
     95430   219.45078     -931.87178      1955.5856      4326.9625    
     95440   186.17744     -930.94958      1831.9373      4327.7148    
     95450   179.57378     -930.76563      1260.6322      4330.1799    
     95460   211.08504     -931.63382      274.17673      4333.8492    
     95470   195.19462     -931.1828      -686.62634      4337.8498    
     95480   178.96778     -930.71987     -1492.7855      4341.2832    
     95490   203.06699     -931.37155     -2023.4116      4343.3794    
     95500   198.91021     -931.23735     -1974.772       4343.6381    
     95510   183.66363     -930.79748     -1523.4807      4342.0579    
     95520   195.34792     -931.10167     -888.03971      4339.021     
     95530   201.81051     -931.25507      0.12451758     4335.1179    
     95540   195.71387     -931.05753      1011.7696      4331.1687    
     95550   195.3764      -931.01804      1777.3919      4328.0978    
     95560   200.02993     -931.11521      2110.329       4326.6282    
     95570   217.95352     -931.58381      1956.4749      4327.0953    
     95580   214.23522     -931.45994      1443.7905      4329.4009    
     95590   191.06008     -930.80273      646.19961      4333.1021    
     95600   199.28438     -931.01503     -429.42653      4337.4702    
     95610   210.88195     -931.31636     -1464.7794      4341.523     
     95620   189.20273     -930.69387     -2061.7288      4344.3022    
     95630   190.51461     -930.70949     -2226.3808      4345.2071    
     95640   210.44213     -931.23771     -1943.7466      4344.0461    
     95650   210.60864     -931.21759     -1204.5026      4341.0529    
     95660   202.99052     -930.98342     -199.97967      4336.8848    
     95670   201.06495     -930.90414      800.27931      4332.4545    
     95680   203.43174     -930.93781      1612.9044      4328.6918    
     95690   211.47612     -931.12542      2111.301       4326.3655    
     95700   197.80926     -930.70811      2263.4588      4325.9728    
     95710   196.27731     -930.6245       1858.2092      4327.6749    
     95720   212.41011     -931.01783      1014.495       4331.1447    
     95730   214.7499      -931.01547      43.292486      4335.6495    
     95740   211.34468     -930.84691     -955.43113      4340.2974    
     95750   213.28693     -930.8218      -1855.8959      4344.1483    
     95760   206.9342      -930.56464     -2377.6493      4346.3472    
     95770   206.83715     -930.48417     -2385.488       4346.3677    
     95780   225.64315     -930.92961     -1850.2316      4344.158     
     95790   222.40235     -930.76923     -792.21818      4340.1871    
     95800   220.49003     -930.65812      373.30528      4335.3945    
     95810   234.22468     -930.99147      1340.2308      4330.848     
     95820   218.84111     -930.53164      2141.5719      4327.4753    
     95830   204.91381     -930.12707      2508.5475      4326.0333    
     95840   222.81805     -930.61665      2205.6262      4326.8878    
     95850   221.92687     -930.59717      1458.0623      4329.8243    
     95860   201.18776     -930.03589      474.72349      4334.2017    
     95870   212.21912     -930.35959     -703.63044      4339.1205    
     95880   223.36197     -930.69283     -1763.435       4343.4981    
     95890   212.18762     -930.41895     -2403.5522      4346.3321    
     95900   213.17922     -930.4959      -2525.8999      4346.9785    
     95910   222.65772     -930.82675     -2042.5127      4345.2785    
     95920   217.86064     -930.7771      -1061.0363      4341.6382    
     95930   226.71453     -931.12142     -8.7495675      4336.9182    
     95940   228.1442      -931.27581      1006.3142      4332.0949    
     95950   212.71882     -930.96677      1864.1052      4328.1201    
     95960   194.46132     -930.565        2342.1122      4325.8042    
     95970   192.29844     -930.59201      2306.9093      4325.6205    
     95980   195.62213     -930.75618      1837.6959      4327.591     
     95990   202.29718     -931.00155      991.89241      4331.3248    
     96000   204.77884     -931.11988     -70.389136      4336.0764    
     96010   213.173       -931.39553     -1193.0181      4340.8712    
     96020   209.92278     -931.34641     -2117.5678      4344.6592    
     96030   187.42126     -930.75693     -2583.1548      4346.5526    
     96040   191.36062     -930.8953      -2527.1581      4346.0643    
     96050   207.50222     -931.37166     -1871.6657      4343.2047    
     96060   196.12816     -931.08241     -715.09642      4338.5477    
     96070   190.08225     -930.9334       544.73721      4333.1288    
     96080   201.28889     -931.25658      1649.8334      4328.1111    
     96090   196.12602     -931.12129      2523.0599      4324.5456    
     96100   200.57039     -931.25458      2853.6357      4323.2566    
     96110   204.46912     -931.37757      2509.9297      4324.5919    
     96120   194.48219     -931.11795      1605.7189      4328.2926    
     96130   189.87002     -931.00327      389.14319      4333.5766    
     96140   196.63995     -931.19652     -874.70013      4339.3457    
     96150   204.20232     -931.40607     -1993.6767      4344.4216    
     96160   212.9772      -931.65262     -2823.1961      4347.727     
     96170   200.80583     -931.32651     -3069.5654      4348.4539    
     96180   183.78185     -930.86989     -2609.1955      4346.3249    
     96190   192.63723     -931.12926     -1580.005       4341.7173    
     96200   193.63122     -931.16335     -154.42921      4335.5613    
     96210   175.69903     -930.65924      1386.6374      4329.17      
     96220   199.5477      -931.30423      2554.789       4323.9561    
     96230   210.66217     -931.59169      3269.2027      4321.037     
     96240   180.48955     -930.7381       3404.5208      4321.1128    
     96250   188.35123     -930.94134      2641.2732      4324.3339    
     96260   211.91217     -931.57052      1230.7748      4330.0639    
     96270   199.51483     -931.19308     -330.50381      4337.0614    
     96280   197.48845     -931.09693     -1834.0259      4343.8813    
     96290   212.04233     -931.45206     -3014.6873      4349.1044    
     96300   210.49655     -931.36085     -3598.2749      4351.5912    
     96310   209.2576      -931.28796     -3485.8868      4350.7408    
     96320   201.89897     -931.05143     -2596.11        4346.6198    
     96330   197.16276     -930.88573     -1108.4062      4340.0229    
     96340   204.88808     -931.0544       665.84818      4332.3155    
     96350   192.02266     -930.63792      2428.3512      4325.147     
     96360   186.17043     -930.40865      3639.9976      4320.1397    
     96370   209.58693     -930.98481      3958.1726      4318.4252    
     96380   210.36898     -930.93254      3553.1371      4320.3609    
     96390   201.84888     -930.63175      2420.0889      4325.6169    
     96400   211.96793     -930.84744      672.77878      4333.1876    
     96410   209.04914     -930.69384     -1194.8828      4341.501     
     96420   214.86821     -930.78236     -2830.411       4348.8182    
     96430   235.06321     -931.27701     -3923.8801      4353.5815    
     96440   214.80961     -930.67168     -4106.9994      4354.7389    
     96450   206.9644      -930.43453     -3509.3812      4352.0572    
     96460   230.66073     -931.08544     -2285.4123      4346.0598    
     96470   217.47301     -930.72107     -431.92185      4337.8962    
     96480   200.23868     -930.2439       1613.9883      4329.2786    
     96490   223.41519     -930.88789      3247.097       4322.0842    
     96500   221.18171     -930.83888      4230.9295      4317.8382    
     96510   203.54227     -930.38178      4310.6324      4317.4583    
     96520   207.47433     -930.53941      3425.8632      4321.0479    
     96530   210.33205     -930.67774      1833.8042      4327.844     
     96540   204.06005     -930.56338     -128.01927      4336.4162    
     96550   207.48419     -930.71604     -2090.9621      4344.9592    
     96560   209.36242     -930.8296      -3612.1182      4351.6397    
     96570   211.56883     -930.96778     -4385.1151      4355.0048    
     96580   206.10171     -930.91334     -4229.3136      4354.2975    
     96590   198.48001     -930.80909     -3188.9896      4349.6351    
     96600   207.90504     -931.17909     -1474.54        4341.9764    
     96610   209.8916      -931.33608      663.68201      4332.9257    
     96620   198.02355     -931.08707      2701.7763      4324.4588    
     96630   205.50273     -931.35933      4049.7878      4318.44      
     96640   204.30974     -931.38738      4554.331       4316.1242    
     96650   188.79067     -931.01156      4120.6642      4317.9903    
     96660   198.75544     -931.33624      2692.9567      4323.6549    
     96670   199.79983     -931.40174      725.15358      4331.8537    
     96680   181.27135     -930.90331     -1305.62        4340.7972    
     96690   189.15246     -931.11977     -3119.124       4348.5867    
     96700   197.12991     -931.33184     -4252.8232      4353.522     
     96710   187.60099     -931.06226     -4438.4528      4354.5205    
     96720   192.72345     -931.20676     -3775.0624      4351.3731    
     96730   192.39165     -931.20001     -2270.5235      4344.7042    
     96740   185.97721     -931.01417     -173.36755      4335.9242    
     96750   203.69447     -931.48337      1902.5793      4326.9654    
     96760   199.59311     -931.33813      3623.552       4319.7533    
     96770   180.65893     -930.78214      4650.191       4315.8689    
     96780   212.88417     -931.65501      4531.5239      4316.2296    
     96790   209.62833     -931.55197      3533.7475      4320.769     
     96800   189.88601     -930.99813      1744.2842      4328.586     
     96810   213.7486      -931.64585     -614.26495      4338.0418    
     96820   210.43568     -931.5287      -2704.7371      4346.9928    
     96830   177.81833     -930.59598     -4055.7468      4353.4869    
     96840   201.66633     -931.23422     -4801.2163      4356.1983    
     96850   204.70605     -931.30164     -4535.2021      4354.438     
     96860   170.66068     -930.34739     -3115.7307      4348.4671    
     96870   186.18123     -930.75919     -1065.8635      4339.5945    
     96880   205.51222     -931.25058      1254.1758      4329.7425    
     96890   183.18513     -930.56849      3458.6133      4321.0692    
     96900   200.05572     -930.97025      4803.2486      4315.5649    
     96910   227.89955     -931.67767      5078.9292      4314.4616    
     96920   220.57597     -931.43073      4295.1888      4318.021     
     96930   210.75575     -931.13432      2477.5685      4325.5321    
     96940   205.29272     -930.95785      59.731131      4335.3526    
     96950   197.71433     -930.70997     -2277.5262      4345.2766    
     96960   206.72253     -930.91391     -4068.2214      4353.122     
     96970   210.05148     -930.9641      -4915.7706      4357.2024    
     96980   204.37213     -930.78043     -4679.6201      4356.7069    
     96990   210.95417     -930.9512      -3560.7179      4351.8398    
     97000   204.45075     -930.76186     -1739.4598      4343.6634    
     97010   198.29926     -930.57426      468.50442      4333.8931    
     97020   207.48738     -930.7986       2594.448       4324.5791    
     97030   205.90061     -930.71688      4215.9772      4317.6754    
     97040   208.50693     -930.75929      4969.8348      4314.6512    
     97050   210.29213     -930.79338      4718.1307      4316.1895    
     97060   210.20381     -930.78811      3425.4257      4322.059     
     97070   224.73232     -931.19196      1271.5057      4331.0841    
     97080   225.69064     -931.21812     -1176.5344      4341.307     
     97090   198.26001     -930.4554      -3317.2038      4350.4689    
     97100   193.77013     -930.33079     -4765.4921      4356.5566    
     97110   211.96563     -930.84966     -5174.8459      4358.2063    
     97120   206.62251     -930.7369      -4407.9883      4355.038     
     97130   208.83318     -930.85018     -2750.6779      4347.7694    
     97140   220.86654     -931.24524     -487.23377      4337.9729    
     97150   208.92232     -930.97525      1998.3351      4327.7745    
     97160   206.24661     -930.9629       3956.1022      4319.4426    
     97170   203.29744     -930.95385      5001.616       4314.7602    
     97180   200.12811     -930.95286      4979.5085      4314.6698    
     97190   212.64075     -931.4057       3837.0544      4319.1382    
     97200   199.62091     -931.15407      1916.9931      4327.1392    
     97210   172.12128     -930.47204     -379.98966      4336.9206    
     97220   188.85387     -930.9878      -2673.9452      4346.3535    
     97230   203.60251     -931.43842     -4307.7094      4353.3167    
     97240   187.0428      -931.01798     -4891.6091      4356.2813    
     97250   198.00884     -931.36844     -4535.8796      4354.676     
     97260   201.91047     -931.52927     -3168.8739      4348.862     
     97270   187.05737     -931.1616      -1050.1628      4340.1386    
     97280   192.60992     -931.34173      1206.5526      4330.4764    
     97290   204.22416     -931.6766       3134.5603      4321.9641    
     97300   193.85601     -931.39799      4451.1981      4316.3707    
     97310   187.59601     -931.23831      4789.1809      4314.8704    
     97320   190.97236     -931.35281      4065.7464      4317.7576    
     97330   191.64038     -931.39212      2500.3648      4324.3763    
     97340   195.51983     -931.51177      420.06321      4333.2977    
     97350   189.63505     -931.34443     -1723.1596      4342.6123    
     97360   188.86426     -931.30553     -3547.885       4350.3246    
     97370   191.40954     -931.35479     -4634.2481      4354.7307    
     97380   173.20421     -930.83103     -4606.8118      4354.8292    
     97390   180.28214     -931.01004     -3616.0495      4350.6419    
     97400   205.59554     -931.68382     -1900.7257      4343.1125    
     97410   193.42087     -931.30149      324.78035      4333.8745    
     97420   190.60407     -931.16527      2429.6474      4324.981     
     97430   211.21419     -931.66568      3977.1072      4318.3615    
     97440   196.31708     -931.18183      4786.229       4315.427     
     97450   187.41594     -930.87855      4462.8793      4316.8758    
     97460   209.06593     -931.42412      3025.2644      4322.399     
     97470   203.06998     -931.19504      1099.1527      4330.713     
     97480   194.81768     -930.89848     -957.27817      4340.0463    
     97490   211.61131     -931.28589     -2935.0004      4348.4744    
     97500   200.63207     -930.90104     -4297.5334      4354.1673    
     97510   196.59624     -930.72496     -4731.8389      4355.851     
     97520   208.96384     -931.01757     -4066.6446      4353.1366    
     97530   203.95045     -930.83799     -2463.5068      4346.6662    
     97540   201.6654      -930.7367      -455.58659      4337.9418    
     97550   216.3242      -931.1011       1541.065       4328.8406    
     97560   206.49699     -930.78533      3365.6642      4321.228     
     97570   203.50075     -930.669        4490.7391      4316.7456    
     97580   214.48971     -930.95712      4559.4046      4316.3866    
     97590   198.16132     -930.50292      3723.9453      4320.2143    
     97600   205.63982     -930.71693      2039.7748      4327.4479    
     97610   223.07294     -931.205       -121.26251      4336.546     
     97620   205.47999     -930.71672     -2157.8071      4345.5298    
     97630   200.93537     -930.58752     -3743.29        4352.4958    
     97640   218.2744      -931.07238     -4584.0772      4355.9601    
     97650   212.36829     -930.92846     -4409.362       4355.1535    
     97660   206.23432     -930.79101     -3281.0797      4350.2563    
     97670   216.7657      -931.11946     -1442.2749      4342.3483    
     97680   212.32173     -931.02627      753.93543      4333.1675    
     97690   209.82971     -930.97864      2672.4368      4324.7357    
     97700   212.27975     -931.06793      3902.5893      4318.8026    
     97710   195.84984     -930.63742      4401.2718      4316.4891    
     97720   192.44341     -930.57274      4010.4392      4318.2203    
     97730   201.83769     -930.86564      2764.1202      4323.622     
     97740   199.68588     -930.83303      953.38949      4331.5536    
     97750   198.71502     -930.82197     -1081.3934      4340.345     
     97760   203.94409     -930.9724      -2882.6715      4348.1162    
     97770   208.5326      -931.10525     -4035.5269      4353.1938    
     97780   205.31841     -931.03168     -4300.036       4354.5071    
     97790   200.22554     -930.91734     -3680.2441      4351.8183    
     97800   203.20697     -931.03116     -2281.2986      4345.734     
     97810   216.62143     -931.43404     -355.89451      4337.5865    
     97820   209.17383     -931.25361      1690.974       4329.1776    
     97830   204.89533     -931.15746      3244.8161      4322.3746    
     97840   217.37045     -931.53458      3955.3193      4318.5805    
     97850   198.66753     -931.05899      3889.6036      4318.439     
     97860   176.292       -930.48134      3061.0706      4321.8693    
     97870   191.39194     -930.93727      1565.2643      4328.0956    
     97880   197.88596     -931.14369     -188.49852      4335.7514    
     97890   189.34936     -930.92109     -1860.6305      4343.2152    
     97900   192.37795     -931.01119     -3149.7318      4348.9316    
     97910   196.92104     -931.14222     -3751.8724      4351.708     
     97920   202.28238     -931.30261     -3588.9901      4350.9886    
     97930   200.78566     -931.27988     -2674.947       4346.9476    
     97940   193.36963     -931.09211     -1203.9396      4340.4602    
     97950   201.3817      -931.32574      493.64022      4332.9077    
     97960   202.76375     -931.3686       2213.4737      4325.8793    
     97970   193.28469     -931.10709      3512.621       4320.9404    
     97980   208.05337     -931.52511      3835.6217      4319.2333    
     97990   212.42292     -931.66874      3277.4903      4321.0471    
     98000   185.0293      -930.93946      2157.4804      4325.8745    
     98010   184.5532      -930.95327      562.36333      4332.6678    
     98020   198.89134     -931.37122     -1160.1955      4339.9567    
     98030   177.52106     -930.78948     -2495.7142      4346.1639    
     98040   188.91763     -931.11434     -3412.9577      4350.0248    
     98050   214.12656     -931.82947     -3647.335       4350.701     
     98060   196.31334     -931.36406     -2979.8862      4348.0066    
     98070   179.17068     -930.92059     -1712.3354      4342.5707    
     98080   189.41736     -931.23092     -186.82427      4335.5842    
     98090   185.34775     -931.13173      1478.3415      4328.4904    
     98100   190.6188      -931.28254      2854.9389      4322.811     
     98110   203.6347      -931.64876      3580.2177      4319.7856    
     98120   185.76314     -931.1622       3576.0951      4320.065     
     98130   185.95618     -931.17905      2693.6205      4323.6126    
     98140   201.56825     -931.61906      1208.493       4329.6184    
     98150   195.6622      -931.45311     -383.66455      4336.7318    
     98160   201.54742     -931.60766     -1907.1256      4343.4658    
     98170   206.67583     -931.73901     -3042.1847      4348.4091    
     98180   185.66872     -931.14784     -3470.0403      4350.5194    
     98190   185.19011     -931.12875     -3278.4291      4349.3926    
     98200   198.05866     -931.47794     -2448.2362      4345.2325    
     98210   184.99669     -931.10032     -942.40422      4338.8557    
     98220   182.56731     -931.0059       757.86184      4331.6587    
     98230   185.67109     -931.04806      2222.2587      4325.2091    
     98240   179.12517     -930.81041      3267.4196      4320.8525    
     98250   192.31385     -931.11488      3648.0079      4319.5231    
     98260   213.44917     -931.63604      3222.3547      4321.5421    
     98270   200.14827     -931.20611      2151.3567      4326.5155    
     98280   200.80905     -931.16814      536.60113      4333.4412    
     98290   213.30675     -931.45129     -1188.4807      4340.8396    
     98300   204.17293     -931.1334      -2575.467       4347.1211    
     98310   201.33064     -930.99756     -3470.8428      4350.9863    
     98320   211.45933     -931.23037     -3707.6539      4351.6072    
     98330   207.08705     -931.07258     -3066.8199      4348.7976    
     98340   199.94872     -930.8469      -1723.397       4343.1749    
     98350   199.7791      -930.81243     -62.827857      4336.0013    
     98360   198.99055     -930.75318      1605.3765      4328.8296    
     98370   207.08012     -930.93654      2916.7781      4323.19      
     98380   207.90136     -930.92239      3588.2824      4320.2664    
     98390   199.80134     -930.67146      3499.6296      4320.6519    
     98400   199.53373     -930.64565      2682.3529      4324.2474    
     98410   201.68255     -930.6865       1294.2215      4330.2926    
     98420   211.78326     -930.94327     -406.33888      4337.5036    
     98430   221.41664     -931.18545     -1955.709       4344.3182    
     98440   208.07547     -930.79639     -2976.9973      4349.3058    
     98450   202.16805     -930.62253     -3437.4053      4351.5051    
     98460   225.27714     -931.26633     -3298.6958      4350.4942    
     98470   218.03132     -931.08354     -2367.5695      4346.4465    
     98480   200.75456     -930.63118     -916.64845      4340.2445    
     98490   213.28034     -931.00794      613.52751      4333.239     
     98500   213.20744     -931.04005      2040.8452      4326.8611    
     98510   194.87317     -930.57137      3112.3662      4322.4167    
     98520   199.45404     -930.74767      3485.3128      4320.8559    
     98530   209.56272     -931.09484      3079.2832      4322.4987    
     98540   202.62626     -930.98447      2015.4675      4326.9608    
     98550   194.55593     -930.84835      523.76473      4333.2573    
     98560   193.10207     -930.89166     -1049.4909      4340.0151    
     98570   208.65119     -931.41048     -2438.5025      4345.7706    
     98580   202.00892     -931.32091     -3253.448       4349.2484    
     98590   188.16507     -931.02922     -3370.4913      4349.695     
     98600   196.24997     -931.34329     -2822.9413      4347.0145    
     98610   198.95445     -931.50456     -1646.0731      4341.7477    
     98620   180.35795     -931.05504     -23.654582      4335.0159    
     98630   184.10852     -931.20171      1581.2878      4328.3182    
     98640   196.05575     -931.56142      2827.2305      4323.1279    
     98650   191.65975     -931.46081      3491.8796      4320.5735    
     98660   195.50935     -931.5887       3354.5178      4321.2328    
     98670   202.29536     -931.80011      2418.7624      4324.9586    
     98680   187.40143     -931.40479      959.80256      4330.8901    
     98690   182.59039     -931.27705     -729.39849      4337.6769    
     98700   183.73107     -931.30002     -2177.1309      4343.7682    
     98710   179.44724     -931.16261     -3043.4541      4347.8272    
     98720   191.3579      -931.47213     -3269.4825      4349.0452    
     98730   197.53309     -931.62355     -2790.9539      4347.2316    
     98740   189.20683     -931.37377     -1760.5895      4342.8504    
     98750   194.15017     -931.48966     -482.12742      4336.8697    
     98760   180.72934     -931.08653      988.85318      4330.5073    
     98770   170.76483     -930.76998      2292.7865      4325.1134    
     98780   193.52915     -931.35262      3016.2833      4321.8583    
     98790   200.50509     -931.49395      3187.3034      4321.4018    
     98800   196.3109      -931.33349      2755.3986      4323.8792    
     98810   209.31331     -931.65618      1656.0837      4328.8669    
     98820   207.56103     -931.57071      187.23584      4335.3558    
     98830   194.91675     -931.18413     -1370.8202      4341.9854    
     98840   201.81541     -931.3391      -2746.4859      4347.3066    
     98850   192.46925     -931.0448      -3450.3392      4350.0655    
     98860   181.74921     -930.71837     -3332.5238      4349.6201    
     98870   199.28707     -931.17816     -2549.4569      4346.0897    
     98880   197.42511     -931.09673     -1183.8975      4340.2383    
     98890   188.62558     -930.81924      438.75965      4333.3497    
     98900   208.77778     -931.33916      1914.8401      4326.9224    
     98910   207.74908     -931.2708       3104.2188      4322.3216    
     98920   191.16186     -930.78038      3634.941       4320.6052    
     98930   202.23813     -931.06693      3187.7078      4322.2139    
     98940   205.07996     -931.1289       2085.2322      4326.7417    
     98950   201.27925     -931.0087       623.99726      4333.1711    
     98960   206.59295     -931.13906     -1000.0683      4340.1417    
     98970   200.52874     -930.95083     -2416.4021      4346.1542    
     98980   199.57233     -930.90628     -3320.1963      4349.8976    
     98990   209.90532     -931.18281     -3481.1896      4350.5456    
     99000   197.52239     -930.83741     -2772.0451      4347.9795    
     99010   201.2965      -930.94358     -1547.1868      4342.8674    
     99020   226.13538     -931.63577     -133.39088      4336.3631    
     99030   205.26214     -931.06137      1410.7818      4329.8105    
     99040   187.50317     -930.57124      2640.2327      4324.6151    
     99050   206.46963     -931.10049      3196.5001      4321.8769    
     99060   199.30981     -930.90892      3164.5296      4322.1007    
     99070   191.755       -930.70988      2453.8192      4325.2261    
     99080   215.49069     -931.38058      1117.6568      4330.5766    
     99090   208.30371     -931.19246     -295.97995      4336.9432    
     99100   191.93699     -930.74642     -1612.3964      4343.0064    
     99110   203.06756     -931.05994     -2757.1052      4347.5297    
     99120   201.11304     -931.01234     -3300.2466      4349.4751    
     99130   181.83946     -930.48595     -2977.3619      4348.3691    
     99140   195.59812     -930.87553     -2047.7189      4344.5167    
     99150   208.10954     -931.22575     -675.98727      4338.8129    
     99160   210.33434     -931.28891      852.01365      4332.5447    
     99170   213.78348     -931.38709      2157.54        4327.1203    
     99180   220.55739     -931.58561      2887.4711      4323.718     
     99190   214.9935      -931.45439      2983.8503      4322.9936    
     99200   196.5954      -930.97431      2486.6885      4325.0168    
     99210   180.77769     -930.55943      1473.7454      4329.3129    
     99220   194.97357     -930.96658      87.149324      4334.9335    
     99230   203.38541     -931.20402     -1283.6393      4340.6057    
     99240   190.78993     -930.853       -2292.4422      4345.0675    
     99250   195.06795     -930.96897     -2797.1457      4347.3829    
     99260   197.14359     -931.02511     -2689.7603      4347.0987    
     99270   186.45779     -930.72744     -2026.007       4344.3327    
     99280   196.28898     -930.99679     -961.32187      4339.7213    
     99290   208.72097     -931.33412      366.03052      4334.2771    
     99300   209.41068     -931.34578      1592.1595      4329.2239    
     99310   209.03075     -931.33261      2381.1824      4325.6747    
     99320   199.96552     -931.08403      2681.472       4324.3466    
     99330   198.62086     -931.05327      2419.629       4325.4927    
     99340   218.35522     -931.61303      1589.2521      4328.8487    
     99350   204.89799     -931.25559      506.78096      4333.6552    
     99360   189.90284     -930.85261     -728.63459      4338.8968    
     99370   201.70328     -931.18849     -1906.2765      4343.4253    
     99380   190.20416     -930.87408     -2553.3503      4346.1765    
     99390   185.67469     -930.75138     -2627.6264      4346.5519    
     99400   208.60252     -931.39144     -2202.1446      4344.4925    
     99410   197.51574     -931.08811     -1177.1565      4340.4347    
     99420   182.59267     -930.67346      110.01322      4335.3361    
     99430   206.50786     -931.33008      1206.0304      4330.3753    
     99440   198.10596     -931.08483      2124.9451      4326.5825    
     99450   191.90358     -930.90183      2572.8512      4324.775     
     99460   211.23938     -931.42996      2395.8958      4325.3381    
     99470   201.94435     -931.16683      1785.2882      4328.1066    
     99480   193.52193     -930.92912      771.04397      4332.4971    
     99490   212.74711     -931.45566     -469.66656      4337.5644    
     99500   206.71637     -931.27984     -1480.6255      4342.1805    
     99510   196.42106     -930.98819     -2178.5344      4345.4004    
     99520   208.66886     -931.32584     -2536.5191      4346.5743    
     99530   200.56665     -931.10328     -2285.8671      4345.4052    
     99540   192.83687     -930.89403     -1516.8496      4342.142     
     99550   200.61324     -931.11287     -479.33244      4337.5094    
     99560   195.85456     -930.97816      687.53722      4332.4884    
     99570   196.9853      -931.00283      1682.8971      4328.1498    
     99580   195.08806     -930.94024      2327.2922      4325.4012    
     99590   189.65994     -930.77713      2494.5382      4324.8174    
     99600   208.8551      -931.29643      2040.5353      4326.5207    
     99610   206.62329     -931.22021      1199.1785      4330.0922    
     99620   185.951       -930.63032      197.43872      4334.7532    
     99630   206.32329     -931.17267     -916.10512      4339.5594    
     99640   219.42555     -931.5073      -1801.5766      4343.4929    
     99650   194.12428     -930.77998     -2208.1575      4345.7465    
     99660   208.30527     -931.1534      -2275.0971      4345.9329    
     99670   218.96536     -931.43171     -1904.4072      4344.0165    
     99680   191.93044     -930.66907     -1036.9174      4340.374     
     99690   197.72898     -930.8165       23.548211      4335.8128    
     99700   217.54052     -931.34715      1077.5727      4331.3229    
     99710   209.7317      -931.11333      1926.7629      4327.8753    
     99720   211.73041     -931.16083      2245.0792      4326.2217    
     99730   202.81068     -930.913        2050.9429      4326.6439    
     99740   183.19396     -930.36973      1473.4432      4328.9543    
     99750   196.35141     -930.73187      564.57447      4332.6013    
     99760   201.50915     -930.86492     -385.34689      4336.7512    
     99770   190.5078      -930.54508     -1170.2476      4340.5266    
     99780   205.96113     -930.95684     -1733.1895      4343.1937    
     99790   214.50032     -931.17738     -1866.2842      4344.2496    
     99800   209.10938     -931.01842     -1619.7227      4343.5776    
     99810   223.2287      -931.41085     -1192.3495      4341.4072    
     99820   217.67313     -931.26852     -471.55269      4338.1679    
     99830   200.36868     -930.80681      419.01292      4334.5389    
     99840   215.6445      -931.25592      1105.2138      4331.3245    
     99850   208.19799     -931.08259      1594.0089      4329.1665    
     99860   192.394       -930.68226      1750.3006      4328.4976    
     99870   201.94272     -930.9894       1441.9319      4329.4381    
     99880   199.88576     -930.97905      834.24905      4331.7006    
     99890   182.78076     -930.54755      127.47601      4334.724     
     99900   191.51071     -930.82821     -595.55394      4337.8452    
     99910   202.88812     -931.18104     -1138.8852      4340.4025    
     99920   208.83341     -931.38838     -1463.4562      4341.8913    
     99930   207.20938     -931.39458     -1532.7026      4342.0175    
     99940   193.97074     -931.08235     -1247.562       4340.7371    
     99950   194.32076     -931.14638     -687.24009      4338.3246    
     99960   196.45087     -931.25955      24.645594      4335.3082    
     99970   185.03522     -930.99029      728.79453      4332.3499    
     99980   201.58412     -931.4945       1186.4341      4330.086     
     99990   209.80011     -931.77337      1468.6443      4328.9453    
    100000   185.28944     -931.14373      1505.8814      4329.1752    
Loop time of 9.45583 on 1 procs for 50000 steps with 216 atoms

Performance: 456.861 ns/day, 0.053 hours/ns, 5287.741 timesteps/s, 1.142 Matom-step/s
98.8% CPU use with 1 MPI tasks x 1 OpenMP threads

MPI task timing breakdown:
Section |  min time  |  avg time  |  max time  |%varavg| %total
---------------------------------------------------------------
Pair    | 8.8749     | 8.8749     | 8.8749     |   0.0 | 93.86
Neigh   | 0          | 0          | 0          |   0.0 |  0.00
Comm    | 0.14083    | 0.14083    | 0.14083    |   0.0 |  1.49
Output  | 0.047713   | 0.047713   | 0.047713   |   0.0 |  0.50
Modify  | 0.35704    | 0.35704    | 0.35704    |   0.0 |  3.78
Other   |            | 0.03535    |            |       |  0.37

Nlocal:            216 ave         216 max         216 min
Histogram: 1 0 0 0 0 0 0 0 0 0
Nghost:            950 ave         950 max         950 min
Histogram: 1 0 0 0 0 0 0 0 0 0
Neighs:              0 ave           0 max           0 min
Histogram: 1 0 0 0 0 0 0 0 0 0
FullNghs:         7362 ave        7362 max        7362 min
Histogram: 1 0 0 0 0 0 0 0 0 0

Total # of neighbors = 7362
Ave neighs/atom = 34.083333
Neighbor list builds = 0
Dangerous builds = 0

print "Lattice parameter simulation completed for Si at ${temperature} K."
Lattice parameter simulation completed for Si at 200 K.
Total wall time: 0:00:24
