LAMMPS (30 Mar 2026)
OMP_NUM_THREADS environment is not set. Defaulting to 1 thread.
  using 1 OpenMP thread(s) per MPI task

# ------------------ Initialization ------------------
units           metal
boundary        p p p
atom_style      atomic

# ------------------ Geometry Generation -------------
# Silicon diamond cubic lattice constant is 5.431 Angstroms

variable pwd_path getenv PWD

variable structure_file string ../structures/si_structure.txt

variable first_run_step equal ${steps}
variable first_run_step equal 50000

read_data ../structures/si_structure.txt
Reading data file ...
  orthogonal box = (0 0 0) to (16.29 16.29 16.29)
  1 by 1 by 1 MPI processor grid
  reading atoms ...
  216 atoms
  read_data CPU = 0.001 seconds

# ------------------ Interatomic Potential -----------------
# Using the standard Stillinger-Weber (SW) potential
pair_style      sw
pair_coeff      * * ../potentials/Si.sw Si
Reading sw potential file ../potentials/Si.sw with DATE: 2007-06-11


# ------------------ Compute -----------------
compute eng all pe/atom
compute eatoms all reduce sum c_eng
compute new all temp


# ------------------ Energy Minimization -------------
# Relax the structure to remove any initial overlapping/strain
thermo          10
thermo_style    custom step temp pe press vol

minimize 1.0e-6 1.0e-6 5000 10000
Neighbor list info ...
  update: every = 1 steps, delay = 0 steps, check = yes
  max neighbors/atom: 2000, page size: 100000
  master list distance cutoff = 5.77118
  ghost atom cutoff = 5.77118
  binsize = 2.88559, bins = 6 6 6
  1 neighbor lists, perpetual/occasional/extra = 1 0 0
  (1) pair sw, perpetual
      attributes: full, newton on
      pair build: full/bin/atomonly
      stencil: full/bin/3d
      bin: standard
Per MPI rank memory allocation (min/avg/max) = 4.343 | 4.343 | 4.343 Mbytes
   Step          Temp          PotEng         Press          Volume    
         0   0             -936.70522      532.56802      4322.7812    
         1   0             -936.70522      532.56802      4322.7812    
Loop time of 0.000359341 on 1 procs for 1 steps with 216 atoms

77.9% CPU use with 1 MPI tasks x 1 OpenMP threads

Minimization stats:
  Stopping criterion = quadratic factors are zero
  Energy initial, next-to-last, final = 
     -936.705223045316  -936.705223045316  -936.705223045316
  Force two-norm initial, final = 1.1685261e-17 1.1685261e-17
  Force max component initial, final = 8.6736205e-19 8.6736205e-19
  Final line search alpha, max atom move = 1 8.6736205e-19
  Iterations, force evaluations = 1 2

MPI task timing breakdown:
Section |  min time  |  avg time  |  max time  |%varavg| %total
---------------------------------------------------------------
Pair    | 0.00033664 | 0.00033664 | 0.00033664 |   0.0 | 93.68
Neigh   | 0          | 0          | 0          |   0.0 |  0.00
Comm    | 8.766e-06  | 8.766e-06  | 8.766e-06  |   0.0 |  2.44
Output  | 0          | 0          | 0          |   0.0 |  0.00
Modify  | 0          | 0          | 0          |   0.0 |  0.00
Other   |            | 1.394e-05  |            |       |  3.88

Nlocal:            216 ave         216 max         216 min
Histogram: 1 0 0 0 0 0 0 0 0 0
Nghost:            950 ave         950 max         950 min
Histogram: 1 0 0 0 0 0 0 0 0 0
Neighs:              0 ave           0 max           0 min
Histogram: 1 0 0 0 0 0 0 0 0 0
FullNghs:         7344 ave        7344 max        7344 min
Histogram: 1 0 0 0 0 0 0 0 0 0

Total # of neighbors = 7344
Ave neighs/atom = 34
Neighbor list builds = 0
Dangerous builds = 0

# ------------------ Equilibration (NVT/NPT) ---------
reset_timestep  0
velocity all create ${temperature} 87287 loop geom
velocity all create 600 87287 loop geom

# ---------- Timestamp Details ----------
# Reference timestep for metal units with Silicon is typically 1-2 fs
timestep        0.001



# ---------- NPT Fix ----------

# Tdamp - 100*Timestep
# Pdamp - 1000*Timestep

fix 1 all npt temp ${temperature} ${temperature} 0.1 iso ${pressure} ${pressure} 1.0
fix 1 all npt temp 600 ${temperature} 0.1 iso ${pressure} ${pressure} 1.0
fix 1 all npt temp 600 600 0.1 iso ${pressure} ${pressure} 1.0
fix 1 all npt temp 600 600 0.1 iso 0.0 ${pressure} 1.0
fix 1 all npt temp 600 600 0.1 iso 0.0 0.0 1.0

# ---------- Dump Details ----------
variable dump_path string "../results/lattice_parameter/si_out_${temperature}.dat"
../results/lattice_parameter/si_out_600.dat

dump 1 all custom 5000 ${dump_path} mass type xs ys zs
dump 1 all custom 5000 ../results/lattice_parameter/si_out_600.dat mass type xs ys zs

dump_modify 1 sort id

# ---------- Equilibration ----------
run ${first_run_step}
run 50000
Per MPI rank memory allocation (min/avg/max) = 3.218 | 3.218 | 3.218 Mbytes
   Step          Temp          PotEng         Press          Volume    
         0   600           -936.70522      4652.6911      4322.7812    
        10   324.81183     -929.03221      5100.3094      4323.5261    
        20   189.1873      -925.21428      4159.9159      4325.8257    
        30   366.43491     -929.98178      1858.4466      4329.3886    
        40   235.31112     -926.06947      1016.7632      4333.5867    
        50   175.0662      -924.23026      232.72065      4338.1115    
        60   381.87424     -929.72078     -1226.5221      4342.6939    
        70   304.27084     -927.26482     -1430.0093      4346.9394    
        80   262.63928     -925.91518     -1688.7827      4350.7393    
        90   421.7215      -930.07569     -2750.6158      4353.9864    
       100   334.72246     -927.34326     -2934.6321      4356.3995    
       110   284.90291     -925.71463     -3225.3795      4357.8842    
       120   404.02371     -928.70643     -3908.2499      4358.3356    
       130   320.76936     -926.03266     -3286.0064      4357.5923    
       140   293.52401     -924.99571     -2519.5271      4355.8133    
       150   439.88202     -928.69748     -2366.5565      4353.2176    
       160   382.13398     -926.67522     -1273.6825      4349.9063    
       170   327.8158      -924.83994      97.432771      4346.2039    
       180   454.36142     -927.974        766.31264      4342.5118    
       190   409.39643     -926.28611      1846.3475      4339.0787    
       200   336.62813     -923.91247      2746.1036      4336.2244    
       210   448.15771     -926.62623      2532.1815      4334.2001    
       220   439.92437     -925.94227      2622.7689      4332.9831    
       230   347.48938     -922.99727      3048.5459      4332.6028    
       240   404.11946     -924.20411      2660.7887      4333.1555    
       250   414.89978     -924.07719      2377.585       4334.5521    
       260   370.67547     -922.45384      2540.3157      4336.7157    
       270   460.59588     -924.54339      2214.3701      4339.6727    
       280   540.59018     -926.2677       1494.7812      4343.3268    
       290   447.15197     -923.21622      1029.1124      4347.4787    
       300   461.77171     -923.22724     -157.67753      4351.9504    
       310   529.50254     -924.65285     -1553.0577      4356.3846    
       320   475.56698     -922.70229     -2396.3697      4360.3625    
       330   455.64181     -921.74236     -3290.0346      4363.5915    
       340   494.28699     -922.38645     -3782.4542      4365.7973    
       350   474.80724     -921.40497     -3316.333       4366.8379    
       360   541.94397     -922.83112     -2941.3386      4366.8252    
       370   638.87654     -925.03072     -2848.1007      4365.8708    
       380   540.84824     -921.86156     -2159.3337      4364.0325    
       390   465.29053     -919.41063     -1626.1124      4361.5034    
       400   544.98927     -921.24639     -1467.8406      4358.4452    
       410   549.45325     -920.94664     -740.75462      4354.9384    
       420   518.37316     -919.68535      120.25675      4351.1983    
       430   544.71975     -920.02028      772.36012      4347.4856    
       440   526.39432     -919.10258      1975.3781      4344.0298    
       450   578.73116     -920.15151      3136.4392      4341.1939    
       460   656.47385     -921.87235      3534.0712      4339.3195    
       470   552.45602     -918.59493      4168.4993      4338.5667    
       480   559.1346      -918.45393      4462.368       4339.1183    
       490   698.7958      -921.96651      4154.9915      4341.0653    
       500   654.31102     -920.38608      3791.0804      4344.3376    
       510   643.53148     -919.82362      2525.4404      4348.8042    
       520   737.90989     -922.20499      448.32405      4354.074     
       530   560.30056     -917.0858      -837.67363      4359.5446    
       540   471.97469     -914.48459     -2073.1692      4364.7821    
       550   681.84749     -920.10749     -3593.0042      4369.3789    
       560   657.26472     -919.19226     -3825.6464      4372.8947    
       570   510.68422     -914.94937     -3551.8962      4375.2255    
       580   715.20283     -920.45398     -4412.3125      4376.3971    
       590   744.2372      -921.09032     -4429.424       4376.1935    
       600   512.21165     -914.5597      -3251.2471      4374.6149    
       610   610.1207      -917.20403     -2933.1089      4371.9665    
       620   753.83071     -921.10442     -2563.4099      4368.3794    
       630   604.91641     -916.93203     -1070.5969      4364.0027    
       640   611.47199     -917.10585      45.336529      4359.26      
       650   726.27962     -920.30348      903.57888      4354.513     
       660   646.8724      -918.15533      2105.3365      4350.0541    
       670   617.86546     -917.43492      2983.5354      4346.2408    
       680   674.33529     -919.11642      3762.7153      4343.3582    
       690   673.57602     -919.24673      4324.7777      4341.6523    
       700   729.53148     -921.02741      3844.256       4341.2786    
       710   605.89263     -917.87566      3189.3995      4342.1182    
       720   456.6208      -913.93013      2733.8533      4343.9832    
       730   638.44764     -919.15486      1529.808       4346.7029    
       740   697.81136     -921.03244      868.68195      4349.9466    
       750   516.68571     -916.2211       995.97614      4353.5172    
       760   594.07332     -918.54637      250.71555      4357.405     
       770   761.75706     -923.44041     -823.21533      4361.3946    
       780   633.62966     -920.17994     -1074.0921      4365.1844    
       790   566.13888     -918.57025     -1974.0624      4368.6433    
       800   619.20358     -920.30286     -3450.5527      4371.4849    
       810   562.38023     -918.96672     -4327.5172      4373.2663    
       820   573.95504     -919.50271     -4662.2739      4373.6942    
       830   596.40419     -920.34007     -4381.9442      4372.6539    
       840   542.99922     -919.04895     -3580.856       4370.225     
       850   544.25617     -919.24219     -2823.2585      4366.6383    
       860   581.0078      -920.40129     -1716.4231      4362.144     
       870   577.88063     -920.43547     -295.67785      4357.0896    
       880   602.10843     -921.22016      863.69376      4351.9088    
       890   588.75366     -920.95829      2023.5811      4346.9758    
       900   547.66885     -919.90395      3456.8404      4342.668     
       910   612.70021     -921.78452      4235.7032      4339.41      
       920   655.57425     -923.06703      4398.3906      4337.4543    
       930   597.68088     -921.57373      4384.1175      4336.875     
       940   555.25132     -920.50675      3722.4762      4337.6611    
       950   510.41647     -919.34612      2563.9904      4339.6187    
       960   463.80131     -918.08437      1559.8874      4342.4129    
       970   504.85773     -919.20433      813.78943      4345.7367    
       980   558.81762     -920.63193      452.33638      4349.364     
       990   554.52888     -920.40855      523.95947      4353.189     
      1000   574.72059     -920.8443       161.06768      4357.2098    
      1010   640.51146     -922.52589     -879.88332      4361.3072    
      1020   603.84272     -921.3635      -1956.7675      4365.1734    
      1030   583.77066     -920.67599     -3249.8354      4368.4502    
      1040   598.1843      -920.9408      -4087.2783      4370.7385    
      1050   560.54676     -919.75688     -3961.6271      4371.774     
      1060   525.34121     -918.63302     -3423.7429      4371.5668    
      1070   633.65879     -921.46798     -3184.1435      4370.2536    
      1080   641.20153     -921.48754     -2614.7242      4367.9252    
      1090   543.41918     -918.6135      -1761.5339      4364.7527    
      1100   594.23994     -919.86568     -1360.6979      4360.977     
      1110   638.43495     -920.9106      -858.36955      4356.7393    
      1120   511.94103     -917.22652      330.82129      4352.2141    
      1130   536.01933     -917.72205      1483.313       4347.7519    
      1140   670.08011     -921.21278      2541.0905      4343.7164    
      1150   651.7516      -920.47482      3601.5536      4340.45      
      1160   571.98696     -918.08172      4041.1304      4338.274     
      1170   554.93828     -917.44361      4052.9788      4337.3452    
      1180   597.34845     -918.43771      4154.387       4337.6933    
      1190   669.13064     -920.23845      4367.2397      4339.3677    
      1200   679.26367     -920.35393      4205.7255      4342.4426    
      1210   672.5036      -920.05589      3134.6977      4346.8733    
      1220   663.65011     -919.74641      1522.277       4352.355     
      1230   556.2247      -916.72001      7.5447584      4358.4111    
      1240   599.72457     -917.87846     -1728.5731      4364.5564    
      1250   700.9609      -920.63222     -3337.5002      4370.2472    
      1260   628.35213     -918.59381     -4116.5038      4374.9802    
      1270   582.16704     -917.30873     -4465.8965      4378.4767    
      1280   719.2923      -921.13824     -4952.9546      4380.583     
      1290   661.66646     -919.6129      -4780.0328      4381.1513    
      1300   556.77408     -916.79782     -4647.2754      4380.1901    
      1310   609.52655     -918.36425     -4935.7223      4377.7076    
      1320   581.21964     -917.6775      -4511.6968      4373.6303    
      1330   572.15069     -917.5179      -3568.2032      4368.0641    
      1340   599.97948     -918.37471     -1886.4163      4361.3032    
      1350   571.71651     -917.6547       466.84027      4353.8716    
      1360   646.12027     -919.77682      2365.5248      4346.4778    
      1370   692.86514     -921.16395      4152.7682      4339.7356    
      1380   577.81805     -918.07434      6346.3879      4334.2352    
      1390   683.38306     -921.12879      7089.0421      4330.6215    
      1400   793.31487     -924.41557      6819.6064      4329.1664    
      1410   554.25609     -918.06474      7022.0883      4329.866     
      1420   525.01049     -917.46624      5898.5981      4332.7602    
      1430   728.48078     -923.3724       3524.9503      4337.5378    
      1440   549.45201     -918.66997      2338.1587      4343.5676    
      1450   443.29487     -915.88735      675.7725       4350.4394    
      1460   603.09526     -920.44803     -1743.4815      4357.6387    
      1470   579.47628     -919.89644     -3183.4992      4364.4516    
      1480   492.54453     -917.54802     -3862.9063      4370.3987    
      1490   589.13227     -920.26885     -4757.931       4375.2085    
      1500   598.25696     -920.54659     -5009.6257      4378.6006    
      1510   585.64102     -920.22079     -5173.8462      4380.4452    
      1520   656.67888     -922.23315     -5616.9839      4380.648     
      1530   591.66311     -920.48881     -5335.5142      4379.0685    
      1540   507.7899      -918.21039     -4567.2257      4375.756     
      1550   607.59033     -921.01147     -3775.3777      4370.9161    
      1560   658.90404     -922.46644     -2272.5218      4364.8009    
      1570   572.57495     -920.10433      17.794409      4357.8807    
      1580   618.48648     -921.4144       1507.3518      4350.8225    
      1590   609.77885     -921.20593      2913.5234      4344.1253    
      1600   542.29828     -919.35685      4264.3135      4338.2409    
      1610   572.96181     -920.2167       4536.2462      4333.5738    
      1620   589.50553     -920.67439      4484.9781      4330.2519    
      1630   492.13454     -917.95182      4956.8498      4328.306     
      1640   483.8799      -917.67124      5131.3548      4327.8833    
      1650   551.02241     -919.43104      4966.3962      4329.0664    
      1660   546.18398     -919.14846      5051.6577      4331.8593    
      1670   590.23578     -920.19913      4653.235       4336.3047    
      1680   656.80955     -921.84937      3728.8601      4342.3158    
      1690   667.42504     -921.95764      2647.717       4349.6529    
      1700   688.64838     -922.39939      872.60013      4357.9916    
      1710   690.98409     -922.35828     -1797.9724      4366.7822    
      1720   586.7775      -919.39291     -4453.625       4375.2041    
      1730   516.33129     -917.36226     -6795.2679      4382.3929    
      1740   534.74893     -917.77022     -8616.1999      4387.5572    
      1750   501.28633     -916.70519     -8817.9599      4390.0884    
      1760   531.87901     -917.39495     -7731.4438      4389.8494    
      1770   701.56458     -921.9023      -6627.595       4387.0962    
      1780   750.76945     -923.08026     -5120.7103      4382.1545    
      1790   611.0384      -919.09946     -3101.1345      4375.4815    
      1800   616.05454     -919.17789     -2132.4526      4367.6503    
      1810   637.73176     -919.72477     -1445.0128      4358.9793    
      1820   465.61465     -914.88438      395.66352      4349.7234    
      1830   480.26335     -915.19202      2652.9998      4340.434     
      1840   701.73878     -921.16071      5137.3126      4331.8254    
      1850   692.16939     -920.69957      7907.2982      4324.6971    
      1860   612.60397     -918.36486      9571.8107      4319.8998    
      1870   697.73518     -920.64993      9685.8223      4317.9853    
      1880   673.47522     -919.95341      9457.2795      4319.0768    
      1890   604.80531     -918.08056      8411.1774      4323.1505    
      1900   648.809       -919.36631      6297.169       4329.9436    
      1910   623.58733     -918.7464       4021.9838      4338.8847    
      1920   601.47702     -918.21703      1550.4138      4349.3053    
      1930   636.46073     -919.27687     -1032.3219      4360.4566    
      1940   585.84459     -917.95527     -3353.396       4371.5375    
      1950   619.20626     -918.96705     -5815.4819      4381.7749    
      1960   650.80926     -919.96282     -7779.9744      4390.3631    
      1970   571.94471     -917.92421     -8816.1122      4396.6306    
      1980   610.24864     -919.17163     -9654.4832      4400.1594    
      1990   666.47021     -921.0132      -10186.749      4400.6177    
      2000   506.18526     -916.8783      -9406.9539      4397.8112    
      2010   517.59176     -917.47358     -8423.052       4391.9016    
      2020   675.29057     -922.19741     -7059.5605      4383.1749    
      2030   567.62564     -919.57874     -4149.0036      4372.0841    
      2040   494.65353     -917.81627     -745.80812      4359.5155    
      2050   645.58481     -922.23355      2278.0605      4346.5247    
      2060   655.78536     -922.73798      5521.9534      4334.0995    
      2070   620.32421     -921.9426       8193.6966      4323.2467    
      2080   647.02273     -922.86278      9662.0696      4314.7987    
      2090   569.46104     -920.86661      10451.099      4309.2521    
      2100   497.02606     -918.96049      10307.273      4306.8718    
      2110   470.84599     -918.29108      9488.1115      4307.6586    
      2120   445.89636     -917.6047       8738.837       4311.4272    
      2130   575.23128     -921.16789      7571.1369      4317.9815    
      2140   644.25283     -923.04012      6105.7162      4327.0153    
      2150   505.46762     -919.15094      4519.4038      4338.1285    
      2160   587.24743     -921.37252      1385.6002      4350.8159    
      2170   681.27823     -923.89063     -2214.9373      4364.143     
      2180   542.45062     -919.94281     -4969.0484      4376.9993    
      2190   522.99967     -919.29751     -7592.8967      4388.4512    
      2200   603.00806     -921.3782      -9884.5182      4397.6163    
      2210   555.39473     -919.90807     -10956.328      4403.7313    
      2220   570.65631     -920.20373     -11548.756      4406.3701    
      2230   620.6806      -921.47534     -11688.37       4405.2929    
      2240   516.36425     -918.48614     -10661.017      4400.4422    
      2250   510.01254     -918.22897     -9004.3984      4392.1063    
      2260   606.26121     -920.77944     -6474.0929      4380.8199    
      2270   545.57144     -918.93558     -2701.4373      4367.4137    
      2280   564.84465     -919.29047      1052.8011      4353.0647    
      2290   722.56822     -923.43657      4214.8483      4338.9593    
      2300   686.47183     -922.22218      7334.2424      4326.1228    
      2310   551.31152     -918.3191       9503.9585      4315.5041    
      2320   564.61414     -918.55753      10327.023      4307.7645    
      2330   580.38953     -918.86164      11232.449      4303.2009    
      2340   546.85018     -917.81092      12249.826      4302.103     
      2350   613.0629      -919.54905      11975.601      4304.7669    
      2360   658.56648     -920.73481      10456.183      4311.1427    
      2370   588.44263     -918.74934      8222.3883      4320.8189    
      2380   591.90281     -918.8187       5028.9208      4333.1333    
      2390   638.38841     -920.05821      1512.2695      4347.134     
      2400   610.87495     -919.22936     -1602.1522      4361.7492    
      2410   575.45015     -918.16498     -4689.068       4375.9689    
      2420   590.39232     -918.4739      -7371.4619      4388.7973    
      2430   636.285       -919.63096     -9526.4954      4399.3408    
      2440   651.07065     -919.94739     -10959.785      4406.8777    
      2450   634.21071     -919.43276     -11840.644      4410.9067    
      2460   621.36504     -919.07695     -11969.489      4411.1264    
      2470   643.02122     -919.72542     -11436.29       4407.4783    
      2480   628.99761     -919.42723     -9877.1408      4400.151     
      2490   581.53396     -918.21834     -7434.1607      4389.6594    
      2500   599.87178     -918.82758     -4930.2521      4376.7891    
      2510   626.74829     -919.66616     -2197.6098      4362.3747    
      2520   546.60049     -917.50613      1080.4919      4347.3204    
      2530   533.53541     -917.15755      4554.1611      4332.6656    
      2540   642.54314     -920.1588       7859.6954      4319.49      
      2550   665.19266     -920.7757       10830.03       4308.8058    
      2560   539.32821     -917.29771      13036.964      4301.4961    
      2570   572.62699     -918.26229      13799.447      4298.1952    
      2580   688.59991     -921.58078      13546.627      4299.1335    
      2590   656.65258     -920.89509      12586.433      4304.2386    
      2600   612.13338     -919.9468       10412.18       4313.2133    
      2610   646.38705     -921.26339      7000.6218      4325.401     
      2620   597.03482     -920.30414      3376.1822      4339.7883    
      2630   533.07504     -918.89303     -53.757679      4355.2596    
      2640   562.20733     -920.00558     -3746.7355      4370.7095    
      2650   574.01081     -920.58478     -7329.1459      4384.9576    
      2660   536.8928      -919.7368      -10045.415      4396.8591    
      2670   542.50269     -920.02117     -11982.653      4405.5148    
      2680   557.59927     -920.54827     -13004.038      4410.2935    
      2690   535.94831     -920.0455      -12943.714      4410.8747    
      2700   529.34242     -919.95078     -11927.083      4407.294     
      2710   574.29759     -921.27796     -10219.088      4399.9085    
      2720   620.80846     -922.64737     -8249.5981      4389.2974    
      2730   557.94776     -920.97393     -5447.3537      4376.1629    
      2740   466.25028     -918.44934     -2016.5999      4361.4398    
      2750   545.41087     -920.59734      1256.9153      4346.2246    
      2760   624.24527     -922.66602      4702.1252      4331.5778    
      2770   541.38902     -920.21241      8531.5778      4318.5789    
      2780   560.6278      -920.57785      11345.393      4308.3429    
      2790   662.38665     -923.22336      12753.754      4301.6804    
      2800   577.26455     -920.71439      13334.556      4298.9933    
      2810   551.26689     -919.89575      12432.847      4300.3913    
      2820   604.24193     -921.2749       10616.346      4305.584     
      2830   537.04613     -919.31648      8721.8563      4314.022     
      2840   520.17396     -918.75026      6234.5197      4325.0954    
      2850   584.0073      -920.37327      3428.0408      4338.0408    
      2860   552.77327     -919.31174      723.55524      4351.9887    
      2870   587.6916      -920.0637      -2640.3663      4366.0566    
      2880   641.18456     -921.29421     -6134.3693      4379.1868    
      2890   530.9975      -917.9939      -8452.5385      4390.2959    
      2900   518.69756     -917.43989     -9976.8445      4398.6273    
      2910   659.55631     -921.12853     -11127.376      4403.6856    
      2920   625.65381     -920.00393     -11017.949      4405.1534    
      2930   567.31816     -918.2778      -10169.611      4403.0826    
      2940   640.58851     -920.24061     -9069.0316      4397.7754    
      2950   661.92932     -920.79196     -7122.8033      4389.6531    
      2960   633.00663     -919.98545     -4588.8237      4379.3798    
      2970   649.62782     -920.46254     -2080.9169      4367.7869    
      2980   635.36077     -920.0861       551.4038       4355.7051    
      2990   641.75696     -920.2861       3010.7867      4343.9675    
      3000   628.22977     -919.94182      4907.2596      4333.3264    
      3010   506.40931     -916.57319      6395.6036      4324.3594    
      3020   478.22055     -915.76701      7093.9089      4317.4767    
      3030   543.18808     -917.50709      8005.036       4312.8891    
      3040   560.53756     -917.89775      9447.1723      4310.8503    
      3050   586.88551     -918.5364       10399.728      4311.7419    
      3060   698.80601     -921.56944      10046.303      4315.8052    
      3070   707.41593     -921.79146      8840.9589      4322.9241    
      3080   632.03346     -919.74739      6720.8787      4332.7066    
      3090   658.31469     -920.55002      3555.9386      4344.4792    
      3100   685.75435     -921.40046      114.35496      4357.2643    
      3110   606.16999     -919.28594     -3078.5456      4369.986     
      3120   569.83698     -918.34884     -6145.9573      4381.6185    
      3130   608.77625     -919.48602     -8429.6339      4391.204     
      3140   600.41716     -919.31925     -9769.5856      4398.0207    
      3150   540.48743     -917.72369     -10266.49       4401.6564    
      3160   571.40205     -918.65022     -10575.269      4401.9589    
      3170   636.50582     -920.5469      -10459.862      4398.8751    
      3180   582.28917     -919.16048     -9142.1677      4392.5141    
      3190   494.97169     -916.83895     -6801.4426      4383.3474    
      3200   578.26097     -919.21896     -4127.8443      4372.1564    
      3210   654.33553     -921.37285     -1229.0517      4359.8302    
      3220   592.44116     -919.68937      1969.5145      4347.3149    
      3230   587.22151     -919.56208      4774.2477      4335.5997    
      3240   683.70311     -922.271        6894.249       4325.5327    
      3250   589.45003     -919.71953      8896.9145      4317.7569    
      3260   509.21933     -917.56324      10026.982      4312.8209    
      3270   631.42473     -921.05329      10148.848      4311.0213    
      3280   659.10868     -921.98905      10039.75       4312.3746    
      3290   570.72198     -919.76202      9427.4376      4316.8073    
      3300   595.98759     -920.73215      7272.1399      4324.0744    
      3310   584.62656     -920.71698      4194.2461      4333.5124    
      3320   517.16929     -919.11631      1337.5628      4344.1838    
      3330   534.56497     -919.82576     -1093.5609      4355.193     
      3340   560.24671     -920.73945     -3377.3562      4365.7606    
      3350   511.63811     -919.54266     -5030.9897      4375.1822    
      3360   546.47902     -920.62253     -6446.4124      4382.9209    
      3370   596.33074     -922.10796     -7663.7837      4388.5332    
      3380   578.56497     -921.7162      -8359.9237      4391.657     
      3390   545.252       -920.88829     -8708.189       4392.0846    
      3400   525.04074     -920.40639     -8460.3544      4389.7421    
      3410   538.1879      -920.83034     -7526.0635      4384.7449    
      3420   541.16089     -920.94393     -5829.7053      4377.4351    
      3430   550.34717     -921.1982      -3610.9181      4368.3815    
      3440   557.37723     -921.3522      -1002.6961      4358.3164    
      3450   568.8047      -921.58649      1587.3636      4348.071     
      3460   582.631       -921.85142      3777.1131      4338.4494    
      3470   574.42815     -921.47771      5813.6809      4330.1326    
      3480   565.85079     -921.07382      7441.5069      4323.7222    
      3490   597.77148     -921.77788      8085.0376      4319.6743    
      3500   587.97813     -921.31584      7913.5084      4318.1598    
      3510   503.7978      -918.79467      7291.2815      4319.1053    
      3520   485.44941     -918.08952      6233.597       4322.296     
      3530   552.77861     -919.70741      4872.2623      4327.3893    
      3540   554.21735     -919.45292      4163.6098      4333.9851    
      3550   567.59154     -919.54663      3297.0504      4341.8327    
      3560   657.46698     -921.77239      1608.4375      4350.6385    
      3570   642.37376     -921.13011     -240.83294      4359.8922    
      3580   629.93912     -920.63112     -2485.55        4368.9981    
      3590   629.68739     -920.50901     -4804.2136      4377.2523    
      3600   565.09255     -918.62482     -6548.0237      4383.9363    
      3610   539.3833      -917.82697     -7749.264       4388.4961    
      3620   617.23939     -919.90457     -8394.2106      4390.5577    
      3630   612.91124     -919.71576     -7924.6098      4389.9503    
      3640   576.52526     -918.65951     -6813.0559      4386.8365    
      3650   678.3428      -921.4592      -5923.5821      4381.568     
      3660   646.67994     -920.58166     -4203.3213      4374.493     
      3670   514.30828     -916.91608     -2104.64        4366.1673    
      3680   578.22424     -918.67429     -626.77002      4357.2427    
      3690   668.91806     -921.15388      1064.7799      4348.2227    
      3700   560.17032     -918.09773      3340.2777      4339.6516    
      3710   518.95484     -916.90205      5166.7646      4332.2015    
      3720   628.01296     -919.84931      6470.4063      4326.424     
      3730   649.4285      -920.36008      7736.9948      4322.7179    
      3740   626.38386     -919.67099      8602.1984      4321.4422    
      3750   673.67397     -920.97453      8428.7028      4322.8266    
      3760   674.67188     -921.04413      7306.4166      4326.8042    
      3770   592.97117     -918.8578       5583.9449      4333.0258    
      3780   548.18263     -917.68895      3310.9956      4340.9512    
      3790   610.46535     -919.47168      801.10392      4349.873     
      3800   622.23824     -919.84442     -1373.6718      4359.0171    
      3810   538.42894     -917.55145     -3181.0341      4367.6965    
      3820   555.11264     -918.02285     -4922.9804      4375.3248    
      3830   630.63253     -920.11354     -6100.3967      4381.3615    
      3840   604.71544     -919.39641     -6251.0097      4385.4501    
      3850   615.84798     -919.72504     -6229.8584      4387.5225    
      3860   721.53325     -922.72036     -6533.4439      4387.5822    
      3870   677.02489     -921.6273      -6480.0379      4385.5682    
      3880   541.27725     -918.03517     -5924.3742      4381.5172    
      3890   543.5082      -918.26465     -5014.6532      4375.62      
      3900   568.55246     -919.11872     -3543.4982      4368.1922    
      3910   563.61399     -919.12672     -1781.9158      4359.7134    
      3920   576.78307     -919.62617      94.117662      4350.7491    
      3930   564.57084     -919.40425      2367.3628      4341.9058    
      3940   568.92599     -919.62253      4595.258       4333.8841    
      3950   592.13712     -920.36188      6121.972       4327.348     
      3960   559.3722      -919.5451       7349.57        4322.769     
      3970   570.9833      -919.95775      8052.3891      4320.4983    
      3980   650.4801      -922.28123      8039.0329      4320.7282    
      3990   621.95009     -921.65094      7824.7493      4323.4579    
      4000   576.66253     -920.57438      6841.5413      4328.5972    
      4010   646.05187     -922.7106       4387.4795      4335.8129    
      4020   582.98192     -921.18836      1860.7946      4344.3799    
      4030   475.43268     -918.37726     -378.0757       4353.5136    
      4040   531.52212     -920.06253     -2766.4135      4362.4897    
      4050   520.5132      -919.84334     -4374.1141      4370.5798    
      4060   506.00366     -919.48495     -5443.3373      4377.2622    
      4070   592.99991     -921.92129     -6620.5084      4382.1756    
      4080   607.96041     -922.35779     -7349.5186      4384.9653    
      4090   524.18684     -920.05396     -7317.8701      4385.4159    
      4100   536.30332     -920.39987     -6969.0801      4383.5351    
      4110   549.61167     -920.75037     -6104.0989      4379.4577    
      4120   515.87115     -919.76057     -4520.9368      4373.4857    
      4130   557.72645     -920.82201     -2718.0532      4366.1264    
      4140   614.52606     -922.23263     -593.40813      4357.9748    
      4150   619.97372     -922.17273      1554.5386      4349.7044    
      4160   599.66872     -921.37592      3104.9402      4341.9754    
      4170   580.96379     -920.60358      4261.6538      4335.272     
      4180   565.27578     -919.89032      5429.7475      4329.9558    
      4190   570.69467     -919.73888      6360.8557      4326.3692    
      4200   584.03344     -919.7904       6704.4593      4324.7757    
      4210   584.49239     -919.49215      6508.1226      4325.2695    
      4220   583.23806     -919.17501      5950.1802      4327.7845    
      4230   581.96543     -918.89261      4999.6967      4332.1403    
      4240   595.40732     -919.05277      3647.8385      4338.0368    
      4250   612.60276     -919.34888      2216.0922      4345.0612    
      4260   601.67802     -918.89598      677.76263      4352.7614    
      4270   612.91993     -919.08374     -1055.302       4360.65      
      4280   647.68831     -919.94389     -2792.4865      4368.1818    
      4290   604.69897     -918.66902     -4119.0669      4374.8171    
      4300   586.55391     -918.09994     -5222.2919      4380.1242    
      4310   655.10881     -919.94746     -6204.9031      4383.7485    
      4320   670.08713     -920.34236     -6750.3542      4385.3881    
      4330   561.84179     -917.34571     -6356.1103      4384.8907    
      4340   612.27164     -918.7633      -5726.1368      4382.3716    
      4350   684.25424     -920.79372     -4715.3346      4378.0525    
      4360   624.12573     -919.18566     -3096.9521      4372.28      
      4370   633.17165     -919.51766     -1645.7724      4365.5584    
      4380   675.78771     -920.80325     -385.6543       4358.3601    
      4390   639.69872     -919.93925      825.92324      4351.0917    
      4400   530.17702     -917.02431      2145.6483      4344.1425    
      4410   508.35331     -916.50287      3096.4139      4337.9036    
      4420   552.0666      -917.75902      4171.0644      4332.6849    
      4430   627.74196     -919.89225      5255.3846      4328.8039    
      4440   591.27553     -918.91613      6610.4083      4326.6009    
      4450   591.71041     -918.97126      7101.1155      4326.4502    
      4460   673.4979      -921.3089       6548.4265      4328.491     
      4470   637.70187     -920.42195      5710.5218      4332.5696    
      4480   590.57433     -919.23844      4474.2805      4338.4175    
      4490   674.67963     -921.72357      2652.901       4345.6406    
      4500   641.12092     -920.97953      854.38651      4353.6884    
      4510   558.89223     -918.87707     -1205.471       4361.9831    
      4520   620.12945     -920.75251     -3612.6974      4369.8647    
      4530   606.93702     -920.57436     -5364.4469      4376.5976    
      4540   518.6996      -918.28904     -6489.8835      4381.6188    
      4550   528.92026     -918.70487     -7238.2759      4384.5588    
      4560   575.74008     -920.12203     -7337.3749      4385.1931    
      4570   594.35008     -920.75989     -6948.6941      4383.4927    
      4580   558.81416     -919.89285     -6038.4653      4379.5999    
      4590   526.92763     -919.10403     -4807.6364      4373.8151    
      4600   561.881       -920.14401     -3498.4998      4366.5418    
      4610   557.03523     -920.05209     -1746.0279      4358.2231    
      4620   516.02383     -918.91659      695.49958      4349.4329    
      4630   591.74731     -920.9801       3139.6012      4340.9265    
      4640   661.80592     -922.86285      5357.2474      4333.4624    
      4650   603.18867     -921.18361      7299.3997      4327.7223    
      4660   627.47749     -921.82637      8023.5341      4324.2656    
      4670   673.16874     -923.0938       7568.1551      4323.2994    
      4680   571.84602     -920.31299      6828.9082      4324.6951    
      4690   545.00864     -919.61098      5579.9084      4328.2021    
      4700   536.46515     -919.39558      3998.8384      4333.4349    
      4710   482.29026     -917.86918      2241.45        4339.9015    
      4720   520.10908     -918.8337       302.92703      4347.0483    
      4730   564.40365     -919.88705     -1001.4258      4354.2907    
      4740   536.54057     -918.86673     -1564.5844      4361.2187    
      4750   601.11654     -920.35176     -2541.3431      4367.6185    
      4760   654.04019     -921.44613     -3714.3862      4373.1884    
      4770   619.71179     -920.13478     -4393.9103      4377.5751    
      4780   676.92799     -921.4107      -5201.5388      4380.5422    
      4790   660.32166     -920.67944     -5877.4659      4381.8448    
      4800   558.93764     -917.67139     -6087.229       4381.2821    
      4810   600.01144     -918.6512      -5956.9254      4378.7892    
      4820   579.83651     -917.92914     -4830.0535      4374.444     
      4830   563.28739     -917.31959     -2921.1371      4368.6151    
      4840   682.72883     -920.47655     -1208.7165      4361.8899    
      4850   692.07812     -920.59645      509.56158      4354.8305    
      4860   587.29626     -917.59716      2307.1912      4347.9878    
      4870   638.0864      -918.93797      3546.498       4341.9039    
      4880   635.79133     -918.81251      4541.2934      4336.9697    
      4890   589.88671     -917.49454      5243.6629      4333.4866    
      4900   669.81938     -919.69058      5179.5684      4331.6444    
      4910   633.88336     -918.69858      5303.2215      4331.4436    
      4920   545.00444     -916.25046      5282.8264      4332.903     
      4930   640.91408     -918.93514      4565.9208      4335.9931    
      4940   678.23873     -920.01086      3791.3195      4340.5104    
      4950   616.24237     -918.36305      2684.4347      4346.2015    
      4960   630.36638     -918.84667      806.6169       4352.7045    
      4970   637.53267     -919.15214     -1020.7824      4359.4509    
      4980   606.77306     -918.41558     -2430.7249      4365.8712    
      4990   621.60532     -918.95871     -3633.4136      4371.5071    
      5000   620.67866     -919.07901     -4225.3812      4375.996     
      5010   669.14697     -920.60652     -5095.0621      4379.1149    
      5020   678.76487     -921.12086     -5634.1822      4380.6098    
      5030   557.70452     -918.0234      -5421.0132      4380.3251    
      5040   518.73022     -917.15036     -4905.412       4378.3252    
      5050   644.0358      -920.83981     -4661.8271      4374.7633    
      5060   611.92207     -920.17508     -3518.3312      4369.7684    
      5070   520.36325     -917.81216     -1783.1298      4363.7053    
      5080   620.95437     -920.75337     -487.09392      4357.1026    
      5090   640.94776     -921.46238      773.38379      4350.3882    
      5100   500.2608      -917.67161      2304.1827      4343.9711    
      5110   547.63448     -919.05076      3296.5741      4338.3036    
      5120   638.84494     -921.63092      4315.6921      4333.7081    
      5130   557.0631      -919.39761      5651.1574      4330.5027    
      5140   582.15429     -920.12221      6366.9531      4329.0647    
      5150   665.04527     -922.45737      6422.892       4329.6099    
      5160   634.07185     -921.65972      5959.32        4332.1537    
      5170   587.10607     -920.43196      4638.6873      4336.5365    
      5180   579.94238     -920.29978      2569.3792      4342.3448    
      5190   542.79233     -919.30587      674.32446      4348.9583    
      5200   544.26896     -919.35096     -1062.7845      4355.7764    
      5210   553.66364     -919.5825      -2568.7892      4362.2508    
      5220   535.11078     -919.00862     -3670.5894      4367.9085    
      5230   575.24484     -920.04313     -4468.4334      4372.394     
      5240   598.59568     -920.59943     -4687.8053      4375.4631    
      5250   578.09862     -919.94192     -4577.2973      4377.041     
      5260   617.67976     -920.96054     -4688.7347      4377.1498    
      5270   636.56099     -921.41706     -4624.3551      4375.7727    
      5280   592.43105     -920.14732     -3863.3167      4372.9547    
      5290   585.06391     -919.90652     -2976.2943      4368.9292    
      5300   603.69288     -920.38647     -2452.0717      4363.97      
      5310   550.73583     -918.87416     -1529.2915      4358.2772    
      5320   523.17498     -918.05052     -7.6410875      4352.1535    
      5330   571.23617     -919.29403      1654.5084      4346.0675    
      5340   617.19179     -920.45813      3309.3893      4340.5398    
      5350   611.40732     -920.19229      4740.6441      4336.0792    
      5360   623.64741     -920.44779      5638.7157      4333.1175    
      5370   642.20437     -920.90403      5855.9176      4331.9201    
      5380   621.08178     -920.29087      5420.3595      4332.5475    
      5390   563.92405     -918.69254      4560.7822      4334.8639    
      5400   568.66893     -918.80806      3462.8454      4338.6001    
      5410   591.2961      -919.4063       2455.28        4343.4222    
      5420   598.99926     -919.58501      1456.0154      4349.0104    
      5430   634.13601     -920.53029      257.43709      4355.044     
      5440   626.25279     -920.29447     -887.4508       4361.1538    
      5450   578.48972     -918.956       -2099.5626      4366.9716    
      5460   636.37784     -920.55257     -3614.5636      4372.1032    
      5470   634.1905      -920.49275     -4976.0988      4376.0794    
      5480   530.71508     -917.62421     -5797.6622      4378.4777    
      5490   536.85816     -917.78488     -6208.2142      4379.0308    
      5500   565.45077     -918.54521     -5706.8155      4377.6303    
      5510   573.25952     -918.71651     -4508.1453      4374.4383    
      5520   618.12464     -919.91108     -3088.9255      4369.8367    
      5530   672.25227     -921.3748      -1511.0215      4364.2834    
      5540   648.78354     -920.71278      336.37445      4358.2944    
      5550   631.61686     -920.25118      1683.1892      4352.4336    
      5560   642.8492      -920.59562      2360.1589      4347.1209    
      5570   621.95263     -920.06429      2900.1318      4342.5813    
      5580   579.66753     -918.94226      3550.5119      4338.9817    
      5590   562.01529     -918.48898      4137.7613      4336.5166    
      5600   604.42635     -919.69227      4014.4581      4335.3427    
      5610   600.38242     -919.60744      3651.8423      4335.4286    
      5620   516.90866     -917.30322      3585.236       4336.6748    
      5630   567.99335     -918.71426      3179.5859      4339.0353    
      5640   632.91494     -920.49089      2674.8125      4342.3912    
      5650   599.25613     -919.5376       2169.9814      4346.5875    
      5660   584.28092     -919.10475      1276.2578      4351.4538    
      5670   661.02779     -921.2211      -114.7171       4356.7037    
      5680   616.77576     -919.99054     -1342.05        4361.918     
      5690   553.66666     -918.23939     -2332.8337      4366.7081    
      5700   633.82168     -920.45884     -3294.9368      4370.7514    
      5710   674.58625     -921.5982      -3996.0733      4373.7489    
      5720   611.07003     -919.87806     -4363.2057      4375.4795    
      5730   559.65967     -918.50344     -4478.9722      4375.8266    
      5740   576.95119     -919.02814     -4408.5285      4374.7537    
      5750   605.05471     -919.85034     -3986.2208      4372.2941    
      5760   583.375       -919.29335     -3232.2027      4368.5888    
      5770   564.48033     -918.8082      -2133.7712      4363.8857    
      5780   606.08983     -919.9937      -882.76831      4358.534     
      5790   651.14556     -921.28501      377.72641      4352.9317    
      5800   578.55481     -919.33391      1788.6132      4347.4846    
      5810   502.45824     -917.2759       2813.1855      4342.6176    
      5820   600.46748     -920.04418      3166.894       4338.6375    
      5830   626.43485     -920.82227      3970.0085      4335.6864    
      5840   553.23447     -918.86263      5082.8595      4334.0049    
      5850   597.65719     -920.17673      5224.2235      4333.8974    
      5860   655.54143     -921.89702      4689.5102      4335.4139    
      5870   577.36749     -919.86485      4207.7306      4338.4074    
      5880   597.66918     -920.57799      2954.4491      4342.6983    
      5890   630.0582      -921.64726      1362.16        4347.9077    
      5900   534.78637     -919.16699      241.70003      4353.5597    
      5910   517.34149     -918.80445     -1018.0203      4359.2818    
      5920   621.16145     -921.79541     -2542.7168      4364.6689    
      5930   609.43377     -921.58269     -3423.3389      4369.2643    
      5940   574.67841     -920.73257     -4066.333       4372.7739    
      5950   562.12148     -920.4899      -4906.6689      4374.9786    
      5960   517.44103     -919.33076     -5334.5923      4375.6305    
      5970   517.34228     -919.37721     -5287.046       4374.5966    
      5980   552.18406     -920.3648      -4896.5115      4371.8917    
      5990   551.27124     -920.33315     -3770.2176      4367.6641    
      6000   541.74571     -920.03468     -2319.4562      4362.2657    
      6010   553.32671     -920.28964     -689.27668      4356.1617    
      6020   555.60081     -920.24683      1245.8748      4349.8799    
      6030   615.18176     -921.76398      2839.6579      4344.0113    
      6040   647.62177     -922.51184      4164.462       4339.0574    
      6050   612.98349     -921.41338      5290.703       4335.4317    
      6060   645.64841     -922.20562      5486.016       4333.4545    
      6070   602.29617     -920.90382      5159.5835      4333.1936    
      6080   536.81876     -918.999        4450.2709      4334.5449    
      6090   560.35813     -919.54839      3339.0669      4337.2807    
      6100   554.34075     -919.24253      2311.8767      4341.0685    
      6110   497.86504     -917.51135      1211.1677      4345.581     
      6120   554.84143     -918.89177     -2.1266415      4350.4702    
      6130   575.67499     -919.21414     -630.51428      4355.3725    
      6140   545.26879     -918.11062     -814.89891      4360.0885    
      6150   668.93648     -921.27657     -1680.1418      4364.5227    
      6160   722.27305     -922.50035     -2477.9787      4368.4254    
      6170   608.33393     -919.17026     -2921.6593      4371.5528    
      6180   604.47707     -918.95189     -3819.749       4373.7341    
      6190   621.41423     -919.32308     -4464.4831      4374.7064    
      6200   591.03289     -918.39936     -4275.0946      4374.2825    
      6210   623.77922     -919.24381     -3746.0602      4372.5094    
      6220   657.05198     -920.1202      -2786.6403      4369.566     
      6230   615.82732     -918.95248     -1580.0761      4365.7586    
      6240   633.83497     -919.44967     -943.3216       4361.4493    
      6250   636.14854     -919.52626     -323.21067      4356.8613    
      6260   588.94558     -918.23884      597.33285      4352.1997    
      6270   577.09508     -917.92605      1546.1053      4347.7477    
      6280   597.51462     -918.50022      2546.7289      4343.8039    
      6290   582.16376     -918.06888      3526.1525      4340.6781    
      6300   652.74067     -920.03098      3950.8386      4338.6561    
      6310   644.41302     -919.82546      4168.747       4337.8837    
      6320   551.91107     -917.29835      4206.3871      4338.4228    
      6330   576.06318     -917.99788      3667.6835      4340.2711    
      6340   692.35981     -921.26255      2846.9939      4343.2663    
      6350   644.06233     -919.99322      2598.2289      4347.1807    
      6360   613.40337     -919.24062      1817.7823      4351.9034    
      6370   701.75282     -921.8309       26.723936      4357.174     
      6380   642.81612     -920.38696     -1556.5392      4362.4649    
      6390   514.91791     -917.01874     -2736.6547      4367.2771    
      6400   560.76604     -918.44836     -4055.4697      4371.2135    
      6410   624.05102     -920.38045     -4787.4367      4373.8756    
      6420   547.90314     -918.44396     -4676.7805      4375.0368    
      6430   561.85145     -918.99871     -4388.4401      4374.7112    
      6440   627.90788     -921.01469     -3893.0804      4372.9991    
      6450   625.9246      -921.17416     -3142.2675      4370.0643    
      6460   587.39842     -920.33501     -2486.171       4366.1383    
      6470   566.76905     -919.98847     -1951.7513      4361.4323    
      6480   561.8874      -920.06364     -1085.3632      4356.1351    
      6490   567.3029      -920.41173      90.322895      4350.5217    
      6500   517.40874     -919.18827      1708.6489      4344.9716    
      6510   531.45415     -919.6953       3094.8278      4339.9708    
      6520   600.25305     -921.70488      4132.5803      4335.9516    
      6530   594.89562     -921.65513      4892.576       4333.2347    
      6540   562.43157     -920.8467       5334.0137      4332.0539    
      6550   587.31492     -921.62671      5293.3651      4332.537     
      6560   586.09391     -921.67978      4772.2926      4334.6704    
      6570   578.54405     -921.5556       3649.0229      4338.2888    
      6580   568.18686     -921.34567      2066.2851      4343.0454    
      6590   526.1572      -920.23549      564.27069      4348.4601    
      6600   489.53158     -919.23589     -527.40234      4354.0704    
      6610   527.74384     -920.26596     -1653.3625      4359.5164    
      6620   572.27885     -921.41327     -2885.1141      4364.4387    
      6630   565.68082     -921.08422     -3656.5193      4368.4616    
      6640   559.51513     -920.70199     -3920.4943      4371.3379    
      6650   576.35151     -920.86495     -4062.037       4372.97      
      6660   581.10513     -920.59146     -4152.5985      4373.3116    
      6670   582.47424     -920.16497     -4068.4419      4372.3392    
      6680   591.8466      -919.95134     -3540.4264      4370.0894    
      6690   606.19366     -919.92254     -2554.7442      4366.7337    
      6700   592.61936     -919.19251     -1353.9439      4362.5837    
      6710   599.55088     -919.10813     -230.63461      4358.0152    
      6720   637.90157     -919.94264      750.04582      4353.3842    
      6730   625.62911     -919.41798      1866.4587      4349.0105    
      6740   644.22744     -919.79554      2700.1505      4345.2318    
      6750   639.58093     -919.56186      3129.6658      4342.3057    
      6760   587.68296     -918.04631      3265.3805      4340.3666    
      6770   567.9031      -917.42991      3188.5997      4339.4555    
      6780   600.1124      -918.25006      3243.3699      4339.5567    
      6790   599.7157      -918.15885      3554.607       4340.6918    
      6800   643.11667     -919.29279      3347.207       4342.9347    
      6810   678.50174     -920.22443      2531.7916      4346.2202    
      6820   649.05135     -919.39622      1710.9578      4350.3142    
      6830   619.00854     -918.57885      692.32484      4354.9534    
      6840   634.22012     -919.03379     -529.88121      4359.8148    
      6850   621.69479     -918.72838     -1548.8568      4364.5251    
      6860   667.36062     -920.06166     -2749.9646      4368.7457    
      6870   661.0002      -919.99404     -3735.9068      4372.105     
      6880   542.86519     -916.83007     -4344.7452      4374.2921    
      6890   566.42368     -917.58599     -5190.8413      4375.0861    
      6900   602.53356     -918.6882      -5046.1328      4374.2584    
      6910   545.84567     -917.20404     -3808.2643      4371.8562    
      6920   610.44648     -919.07396     -2519.4041      4368.247     
      6930   724.90165     -922.36201     -1364.1244      4363.8383    
      6940   627.20265     -919.80422      284.58637      4359.0237    
      6950   614.09157     -919.60662      1263.6811      4354.2905    
      6960   680.36036     -921.6503       1482.8649      4349.9451    
      6970   597.44542     -919.57509      2006.9831      4346.088     
      6980   548.32201     -918.40855      2508.445       4342.8703    
      6990   596.79975     -919.93629      2791.8463      4340.4423    
      7000   574.64237     -919.49205      3174.9209      4338.902     
      7010   529.50792     -918.37623      3370.6657      4338.3593    
      7020   548.3187      -919.00255      3214.2004      4338.8711    
      7030   581.54242     -920.00537      3014.5891      4340.3996    
      7040   609.559       -920.85754      2606.8788      4342.8772    
      7050   585.65461     -920.26727      2124.2706      4346.1855    
      7060   565.72706     -919.77225      1353.1863      4350.1679    
      7070   644.23521     -922.007        219.34673      4354.5808    
      7080   644.49635     -922.08701     -776.25522      4359.0845    
      7090   548.60473     -919.50041     -1800.8089      4363.3572    
      7100   553.42037     -919.68877     -3058.7179      4367.0637    
      7110   585.18784     -920.60859     -3899.0194      4369.8195    
      7120   525.02837     -918.95496     -3814.702       4371.3705    
      7130   564.46941     -920.04592     -3678.514       4371.711     
      7140   642.38933     -922.19036     -3521.6506      4370.8845    
      7150   609.13125     -921.25806     -3087.6355      4368.9471    
      7160   555.26399     -919.75955     -2580.0949      4366.0315    
      7170   545.39311     -919.46559     -2166.8904      4362.2927    
      7180   528.68688     -918.94481     -1482.5864      4357.8754    
      7190   569.96431     -919.99305     -637.02323      4352.9901    
      7200   567.72216     -919.7816       966.65348      4347.9262    
      7210   535.82962     -918.70394      2895.3626      4343.1772    
      7220   627.18878     -920.9875       4048.6007      4339.3166    
      7230   668.1629      -921.8097       4866.8413      4336.7209    
      7240   613.969       -920.0056       5502.9767      4335.6535    
      7250   649.92974     -920.72574      4900.0543      4336.2818    
      7260   630.97685     -919.92821      3812.6716      4338.4464    
      7270   547.05673     -917.36518      2977.1265      4341.8348    
      7280   621.66792     -919.20969      1806.1563      4346.1689    
      7290   633.7532      -919.30415      969.81831      4351.1069    
      7300   570.23715     -917.34087      410.09738      4356.3892    
      7310   662.50895     -919.72373     -938.31266      4361.8065    
      7320   692.35906     -920.39624     -2193.7356      4366.958     
      7330   576.42355     -917.07794     -2848.496       4371.459     
      7340   628.7875      -918.46178     -4199.8462      4375.0514    
      7350   652.59599     -919.06619     -5229.9252      4377.3299    
      7360   556.87042     -916.37511     -5171.54        4377.979     
      7370   622.97617     -918.18808     -4909.328       4376.9823    
      7380   668.84187     -919.45217     -4324.4404      4374.4242    
      7390   600.20469     -917.5636      -3310.6793      4370.4939    
      7400   627.37225     -918.34676     -2220.9689      4365.5012    
      7410   671.88732     -919.62787     -665.49858      4359.8043    
      7420   617.71953     -918.18184      1396.5766      4353.9046    
      7430   657.17062     -919.3482       2733.301       4348.4144    
      7440   706.8315      -920.83256      3569.6701      4343.7649    
      7450   664.36613     -919.80511      4344.2838      4340.2329    
      7460   620.70029     -918.76084      4687.2928      4338.0507    
      7470   597.78077     -918.28844      4311.0345      4337.3194    
      7480   580.06252     -917.93843      3855.0534      4337.9489    
      7490   603.25134     -918.71038      3334.4378      4339.7951    
      7500   601.86571     -918.78687      2997.0768      4342.7175    
      7510   621.99783     -919.45624      2118.8867      4346.5922    
      7520   631.22228     -919.82535      802.2642       4351.1549    
      7530   562.761       -918.02502     -447.417        4356.0105    
      7540   531.30492     -917.21239     -1399.8181      4360.7693    
      7550   622.8219      -919.79007     -2301.3404      4365.1199    
      7560   659.77601     -920.85844     -3024.9777      4368.7748    
      7570   608.13486     -919.4854      -3194.5664      4371.5096    
      7580   610.05309     -919.60363     -3347.0142      4373.2455    
      7590   647.29057     -920.71327     -3668.0343      4373.9213    
      7600   625.42242     -920.19623     -3617.6943      4373.4445    
      7610   619.24364     -920.12701     -3420.2407      4371.8152    
      7620   616.07551     -920.14554     -3057.5026      4369.0934    
      7630   603.10139     -919.89389     -2423.3914      4365.3911    
      7640   562.17144     -918.84954     -1441.8041      4360.91      
      7650   571.34452     -919.17238     -448.33756      4355.9489    
      7660   605.51216     -920.17155      568.13477      4350.8239    
      7670   584.8319      -919.64115      1554.6182      4345.8512    
      7680   513.72506     -917.68612      2612.4501      4341.3473    
      7690   536.69302     -918.30977      3546.7572      4337.6397    
      7700   594.166       -919.86154      4354.7341      4335.0252    
      7710   604.8994      -920.10871      5214.9359      4333.7718    
      7720   609.56749     -920.1962       5620.4345      4334.1447    
      7730   654.51541     -921.41933      5088.5535      4336.2698    
      7740   670.71452     -921.87738      4075.2736      4340.0116    
      7750   614.15498     -920.34838      3115.6478      4345.086     
      7760   589.06051     -919.69961      1582.6349      4351.186     
      7770   627.17159     -920.80153     -683.3417       4357.8343    
      7780   594.97112     -919.94985     -2655.8413      4364.3455    
      7790   511.52208     -917.65466     -3923.1255      4370.098     
      7800   550.02428     -918.71566     -5013.8371      4374.6569    
      7810   591.53533     -919.83507     -5578.4977      4377.6695    
      7820   541.76412     -918.40679     -5458.1179      4378.9432    
      7830   579.6693      -919.39826     -5188.6295      4378.4824    
      7840   662.52333     -921.62071     -4628.3384      4376.3634    
      7850   615.64763     -920.24922     -3417.7967      4372.7668    
      7860   576.1761      -919.09085     -2243.2427      4368.0482    
      7870   610.43345     -919.95792     -1308.4986      4362.5725    
      7880   601.03545     -919.57883     -181.95916      4356.6473    
      7890   596.6653      -919.30552      994.60418      4350.6224    
      7900   623.32183     -919.84003      2319.7359      4344.8721    
      7910   582.0441      -918.42981      3923.6275      4339.8232    
      7920   600.56403     -918.63071      5061.4778      4335.9638    
      7930   694.95692     -920.8605       5558.2777      4333.6508    
      7940   650.60801     -919.23355      6147.1195      4333.0807    
      7950   627.3527      -918.26126      5732.3021      4334.4183    
      7960   694.74688     -919.83496      4458.37        4337.5616    
      7970   649.46152     -918.33208      3281.9085      4342.1604    
      7980   557.6394      -915.60482      1970.2018      4347.8569    
      7990   617.8306      -917.111        366.59723      4354.2421    
      8000   666.18242     -918.28283     -618.02524      4360.8458    
      8010   657.48101     -917.90868     -1641.1398      4367.3376    
      8020   694.843       -918.85968     -3210.309       4373.3722    
      8030   677.82291     -918.35129     -4668.0026      4378.4585    
      8040   617.74898     -916.6902      -5495.0467      4382.1286    
      8050   626.41038     -916.96071     -5847.0234      4384.0878    
      8060   644.16949     -917.50502     -5699.143       4384.2022    
      8070   659.935       -918.0246      -5099.0164      4382.4989    
      8080   714.1122      -919.66536     -4386.9028      4379.1429    
      8090   687.84375     -919.14139     -3303.5479      4374.3575    
      8100   616.85555     -917.40039     -1921.911       4368.4786    
      8110   641.30047     -918.31384     -851.87228      4361.9201    
      8120   662.03345     -919.1466       458.99707      4355.0373    
      8130   611.00517     -917.98094      2112.8278      4348.2466    
      8140   635.06596     -918.87858      3646.7565      4342.0608    
      8150   667.02121     -920.00891      4756.5118      4336.9576    
      8160   575.10098     -917.67145      5471.5396      4333.299     
      8170   586.50434     -918.15927      5462.7556      4331.3084    
      8180   637.00565     -919.72139      5297.4731      4331.0184    
      8190   590.10529     -918.56747      5332.7009      4332.4075    
      8200   561.26494     -917.88528      5039.067       4335.4936    
      8210   627.45182     -919.82467      3888.993       4340.1914    
      8220   657.28862     -920.76124      2751.2933      4346.1941    
      8230   629.51309     -920.10837      1438.2016      4353.1553    
      8240   635.56436     -920.39745     -428.03462      4360.6639    
      8250   634.58342     -920.49059     -2540.5371      4368.1424    
      8260   605.0258      -919.78647     -4400.1781      4374.9229    
      8270   552.92749     -918.43434     -5695.6746      4380.4042    
      8280   548.16074     -918.36657     -6826.4679      4384.1309    
      8290   595.9756      -919.74478     -7441.1559      4385.7218    
      8300   593.73878     -919.73568     -6931.8335      4384.9676    
      8310   549.14704     -918.54508     -5734.8051      4381.9929    
      8320   592.62717     -919.78649     -4794.516       4377.1296    
      8330   661.05633     -921.7248      -3535.1639      4370.6829    
      8340   593.77964     -919.90625     -1339.6751      4363.0642    
      8350   567.57893     -919.21509      715.31474      4354.9362    
      8360   646.48781     -921.43636      2082.5404      4346.9327    
      8370   581.93818     -919.67354      3686.012       4339.5196    
      8380   541.30871     -918.56119      4968.3851      4333.187     
      8390   620.66791     -920.76933      5853.1486      4328.3454    
      8400   601.62602     -920.24931      6641.4822      4325.2908    
      8410   536.44285     -918.44971      6996.4114      4324.2793    
      8420   600.40094     -920.23027      6561.3634      4325.4365    
      8430   616.40737     -920.67814      6022.9366      4328.6753    
      8440   566.24578     -919.2927       5185.2749      4333.8565    
      8450   620.87299     -920.81573      3278.3022      4340.7222    
      8460   586.7108      -919.85992      1476.539       4348.7395    
      8470   554.86637     -918.9532      -404.12372      4357.3484    
      8480   607.26872     -920.35559     -2587.7326      4365.9499    
      8490   582.24896     -919.58005     -4187.519       4373.8704    
      8500   552.06062     -918.63983     -5317.0933      4380.5746    
      8510   648.66441     -921.19064     -6458.528       4385.658     
      8520   633.9169      -920.63259     -6829.4405      4388.7515    
      8530   590.19634     -919.28635     -6838.0401      4389.6929    
      8540   675.44852     -921.51963     -7180.0731      4388.4268    
      8550   634.57581     -920.2604      -6716.2564      4384.8557    
      8560   500.68198     -916.44057     -5496.5852      4379.1026    
      8570   541.55487     -917.44678     -4101.521       4371.5239    
      8580   605.20735     -919.00726     -2028.6013      4362.5723    
      8590   595.32264     -918.48284      878.54549      4352.9114    
      8600   636.12465     -919.34515      3459.9028      4343.4287    
      8610   652.19542     -919.51143      5428.3707      4334.9348    
      8620   617.00574     -918.28573      7217.3716      4328.0718    
      8630   678.21772     -919.77143      8298.5091      4323.3917    
      8640   685.87708     -919.81502      9061.9231      4321.264     
      8650   631.19001     -918.19834      9114.5607      4321.942     
      8660   696.71053     -919.97616      7689.8293      4325.4531    
      8670   683.39037     -919.61883      5747.2082      4331.4211    
      8680   569.04807     -916.49108      3884.1542      4339.2924    
      8690   574.57128     -916.68027      1757.5639      4348.5012    
      8700   653.53294     -918.89052     -595.76316      4358.3934    
      8710   652.40492     -918.88703     -2555.1276      4368.2487    
      8720   606.73651     -917.66167     -4390.3725      4377.4251    
      8730   613.28375     -917.89059     -6216.8739      4385.3122    
      8740   645.14967     -918.83943     -7728.8537      4391.3031    
      8750   634.6797      -918.64855     -8412.6335      4394.8947    
      8760   614.5517      -918.22348     -8555.9347      4395.8204    
      8770   653.58315     -919.48361     -8317.3811      4393.999     
      8780   654.61513     -919.74748     -7453.7229      4389.4886    
      8790   588.8941      -918.18387     -5850.2736      4382.5538    
      8800   587.79433     -918.40492     -3909.9904      4373.6876    
      8810   627.90215     -919.77591     -1886.6851      4363.4966    
      8820   591.43856     -919.0075       704.15529      4352.6461    
      8830   592.62738     -919.24689      3262.2947      4341.9409    
      8840   651.75462     -921.08783      5596.5957      4332.1865    
      8850   629.86515     -920.67835      7740.7713      4324.1232    
      8860   595.46394     -919.90409      8751.0094      4318.3945    
      8870   586.31795     -919.80895      9003.826       4315.3419    
      8880   583.05364     -919.85727      8738.2471      4315.0647    
      8890   556.86638     -919.24665      8232.4266      4317.5157    
      8900   527.94583     -918.5262       7237.801       4322.5601    
      8910   565.45133     -919.61865      5541.6287      4329.9146    
      8920   605.85686     -920.77079      3567.396       4339.095     
      8930   574.59798     -919.91622      1533.597       4349.5148    
      8940   587.5788      -920.26944     -960.71598      4360.5315    
      8950   633.64117     -921.52326     -3555.7656      4371.367     
      8960   589.66019     -920.27136     -5799.5231      4381.193     
      8970   536.97349     -918.76634     -7659.5593      4389.2667    
      8980   577.97583     -919.84761     -9067.8305      4394.9593    
      8990   608.56329     -920.63715     -9499.5924      4397.8001    
      9000   608.3178      -920.59208     -9146.2655      4397.612     
      9010   602.5899      -920.41672     -8355.1632      4394.4789    
      9020   600.67728     -920.36208     -7287.758       4388.6348    
      9030   610.13226     -920.62994     -5620.8169      4380.4265    
      9040   602.03713     -920.41084     -3415.168       4370.3855    
      9050   545.99348     -918.84272     -1066.015       4359.2113    
      9060   542.76625     -918.70767      959.49273      4347.6418    
      9070   552.55788     -918.88942      3157.788       4336.3393    
      9080   514.20024     -917.68899      5999.7378      4326.009     
      9090   557.36927     -918.70781      8719.6691      4317.5178    
      9100   657.60252     -921.27293      10430.496      4311.6852    
      9110   633.69603     -920.40885      11529.791      4309.0614    
      9120   643.35368     -920.53449      11477.339      4309.9819    
      9130   665.36567     -921.04852      10269.643      4314.4551    
      9140   608.38209     -919.41415      8430.5498      4322.1574    
      9150   606.70853     -919.33287      5737.1695      4332.5447    
      9160   680.3982      -921.33877      2431.0867      4344.812     
      9170   607.92078     -919.28405     -711.18736      4357.9601    
      9180   554.92586     -917.75921     -3966.8825      4370.9825    
      9190   584.88882     -918.50009     -6925.133       4382.8397    
      9200   553.75671     -917.51315     -8734.1764      4392.5823    
      9210   579.65569     -918.09476     -9903.4828      4399.5799    
      9220   660.69674     -920.19578     -10663.24       4403.4214    
      9230   629.63875     -919.20447     -10611.227      4403.8499    
      9240   597.70853     -918.22268     -9774.914       4400.8692    
      9250   638.19952     -919.25695     -8619.582       4394.7308    
      9260   593.87467     -917.92769     -6708.2837      4385.8292    
      9270   566.56847     -917.05007     -4137.0492      4374.7861    
      9280   665.14882     -919.60101     -1191.0426      4362.4333    
      9290   694.59507     -920.1651       2273.656       4349.7289    
      9300   659.42769     -918.92792      5572.1018      4337.7564    
      9310   689.84175     -919.51511      7661.3734      4327.5173    
      9320   677.79602     -918.93953      9109.5365      4319.6703    
      9330   671.99373     -918.58339      10179.022      4314.6604    
      9340   638.71495     -917.50801      10446.683      4312.7988    
      9350   582.98122     -915.84445      9838.6909      4314.165     
      9360   658.98555     -917.84819      8633.2887      4318.5834    
      9370   703.55913     -918.98984      7191.9933      4325.7055    
      9380   607.90245     -916.27843      5503.3246      4335.1032    
      9390   624.11401     -916.68689      2852.7646      4346.2398    
      9400   695.44632     -918.61234     -249.99548      4358.3053    
      9410   629.96729     -916.74954     -2603.2908      4370.3571    
      9420   637.04716     -916.91704     -4975.4682      4381.6102    
      9430   699.71976     -918.64766     -7374.8749      4391.2917    
      9440   681.13068     -918.17952     -8892.7354      4398.6412    
      9450   678.54684     -918.23422     -9756.7934      4403.1447    
      9460   678.1923      -918.44171     -10076.336      4404.5111    
      9470   636.16415     -917.56368     -9763.6701      4402.6404    
      9480   660.82102     -918.60018     -9146.0272      4397.6304    
      9490   642.51518     -918.50068     -7547.1534      4389.7188    
      9500   566.43903     -916.76076     -5036.8201      4379.44      
      9510   623.37577     -918.66422     -2431.1782      4367.5987    
      9520   662.59651     -920.06338      311.78065      4355.0481    
      9530   604.03085     -918.69018      3405.6202      4342.6787    
      9540   657.75749     -920.38843      6015.1376      4331.4379    
      9550   658.00229     -920.59844      8028.7048      4322.1282    
      9560   541.03051     -917.5077       9449.9615      4315.3571    
      9570   557.10963     -918.06421      9841.0328      4311.5266    
      9580   626.94335     -920.11143      9715.9374      4310.7508    
      9590   572.14557     -918.70147      9552.5926      4312.9938    
      9600   563.82643     -918.57293      8616.4907      4318.1795    
      9610   640.86833     -920.81476      6963.8916      4326.0214    
      9620   642.12957     -920.96601      5140.5874      4336.0292    
      9630   605.92013     -920.08002      2514.5465      4347.6192    
      9640   616.34582     -920.47318     -936.79495      4359.9647    
      9650   599.59939     -920.08898     -3965.0587      4372.0073    
      9660   569.86448     -919.3203      -6307.8831      4382.7789    
      9670   568.08597     -919.30728     -8149.6104      4391.5129    
      9680   583.93651     -919.77317     -9471.7733      4397.6125    
      9690   614.42303     -920.65766     -10283.382      4400.6513    
      9700   594.12224     -920.15557     -10225.556      4400.3897    
      9710   543.35974     -918.81794     -9278.3255      4396.8668    
      9720   541.17905     -918.81683     -7813.721       4390.4047    
      9730   593.19087     -920.30153     -6111.3036      4381.4994    
      9740   604.24709     -920.63494     -3746.4927      4370.745     
      9750   559.8124      -919.40634     -970.86246      4358.9173    
      9760   577.91891     -919.88185      1618.8858      4346.8983    
      9770   599.73061     -920.42624      4193.8936      4335.5152    
      9780   571.53131     -919.55825      6770.9213      4325.5648    
      9790   599.61794     -920.23737      8897.0686      4317.8146    
      9800   654.90283     -921.67234      10261.515      4312.8839    
      9810   628.05212     -920.85852      10754.735      4311.1558    
      9820   588.35947     -919.7253       10033.896      4312.7377    
      9830   572.95027     -919.27727      8494.1051      4317.3939    
      9840   546.46117     -918.5075       6763.4171      4324.6524    
      9850   573.77925     -919.19967      4664.3266      4333.9597    
      9860   601.15548     -919.84833      2313.7294      4344.6592    
      9870   576.48797     -919.01277     -129.55701      4356.0152    
      9880   605.24931     -919.62174     -2690.4685      4367.2487    
      9890   624.82824     -919.93201     -4849.1327      4377.5574    
      9900   607.08126     -919.19376     -6392.9888      4386.2577    
      9910   644.35043     -919.98108     -7726.9988      4392.845     
      9920   654.75193     -920.03167     -8553.101       4396.9117    
      9930   616.39652     -918.76706     -8850.4453      4398.2132    
      9940   639.89536     -919.25482     -9029.1905      4396.6668    
      9950   642.62861     -919.19216     -8459.2648      4392.2707    
      9960   570.78674     -917.09023     -6800.6852      4385.2596    
      9970   570.27379     -916.97057     -4769.7901      4376.1876    
      9980   627.71172     -918.42953     -2554.5798      4365.7369    
      9990   636.2315      -918.51191      245.83063      4354.6528    
     10000   642.7939      -918.5424       3103.1739      4343.8186    
     10010   650.32222     -918.60798      5659.1429      4334.1182    
     10020   643.50296     -918.29577      7713.7345      4326.3213    
     10030   675.1959      -919.08843      8700.3255      4321.0085    
     10040   684.3251      -919.30937      8982.357       4318.4511    
     10050   644.24902     -918.22458      9109.522       4318.7128    
     10060   655.4394      -918.61529      8404.2821      4321.7714    
     10070   660.76042     -918.89432      6860.0838      4327.3806    
     10080   597.16684     -917.29115      4977.19        4335.0509    
     10090   595.35182     -917.40555      2941.4667      4344.1838    
     10100   688.33112     -920.18419      564.32063      4354.1222    
     10110   636.25709     -918.98948     -1495.8852      4364.1339    
     10120   549.69349     -916.82922     -3733.3759      4373.5463    
     10130   617.54157     -918.96093     -6126.768       4381.6478    
     10140   651.46952     -920.20494     -7506.3937      4387.7241    
     10150   579.43758     -918.52374     -7894.5582      4391.3519    
     10160   580.29983     -918.84121     -8015.2666      4392.4157    
     10170   635.37274     -920.6701      -7935.3022      4390.9125    
     10180   592.19535     -919.75164     -6907.3894      4386.9366    
     10190   572.55731     -919.42984     -5494.8728      4380.8424    
     10200   601.39288     -920.40663     -3865.9143      4373.1215    
     10210   600.58901     -920.51944     -2017.6004      4364.3256    
     10220   598.2154      -920.5502       32.210431      4355.0664    
     10230   604.69621     -920.7977       2088.7818      4345.9945    
     10240   579.29506     -920.13105      4049.7516      4337.7502    
     10250   595.7058      -920.60675      5511.2491      4330.9122    
     10260   595.58342     -920.61677      6472.7305      4325.9021    
     10270   538.62834     -919.04086      7015.9637      4322.9816    
     10280   521.91685     -918.56395      6916.5632      4322.2708    
     10290   559.41169     -919.56939      6461.2665      4323.7064    
     10300   572.19364     -919.87071      6092.9493      4327.1257    
     10310   599.39043     -920.56484      5383.2632      4332.3781    
     10320   658.28271     -922.14335      3737.2033      4339.1982    
     10330   586.76323     -920.11071      2007.3667      4347.0842    
     10340   546.4133      -918.94137     -79.78973       4355.4678    
     10350   587.05114     -919.98942     -2119.8519      4363.7002    
     10360   599.33961     -920.2259      -3763.9997      4371.1489    
     10370   572.38291     -919.36397     -5032.7358      4377.3003    
     10380   604.77994     -920.14468     -5888.4918      4381.7685    
     10390   634.06175     -920.83615     -6196.4979      4384.3105    
     10400   609.25606     -920.04511     -6127.2473      4384.8546    
     10410   589.93185     -919.42232     -6083.1017      4383.4455    
     10420   594.23864     -919.45842     -5760.0957      4380.1426    
     10430   597.86258     -919.47269     -4795.9068      4375.097     
     10440   580.06616     -918.88446     -3065.05        4368.6588    
     10450   596.58028     -919.23429     -1274.4781      4361.3845    
     10460   591.98668     -918.97705      366.99565      4353.8548    
     10470   602.72083     -919.13321      1833.7059      4346.5878    
     10480   597.734       -918.83931      3532.8969      4340.0512    
     10490   583.85139     -918.29101      4910.6946      4334.7382    
     10500   621.09594     -919.15417      5648.7748      4331.0415    
     10510   659.61308     -920.05434      6291.6086      4329.1709    
     10520   636.25182     -919.26596      6768.6795      4329.2864    
     10530   629.55799     -918.97484      6508.0497      4331.4847    
     10540   660.12117     -919.74078      5496.2993      4335.6528    
     10550   672.57954     -920.03304      3861.2703      4341.4488    
     10560   650.60157     -919.40377      2164.2106      4348.363     
     10570   626.4791      -918.73911      263.66946      4355.8438    
     10580   613.47713     -918.38997     -1736.0549      4363.2911    
     10590   612.25525     -918.37406     -3463.3798      4370.0808    
     10600   562.00444     -916.9932      -4361.5468      4375.696     
     10610   593.36275     -917.87339     -5272.64        4379.838     
     10620   660.87419     -919.76663     -5955.8755      4382.2482    
     10630   642.16233     -919.30799     -5942.9501      4382.75      
     10640   590.56051     -917.97302     -5515.5748      4381.3735    
     10650   608.95122     -918.61324     -5152.8263      4378.2714    
     10660   586.10834     -918.13567     -4248.4137      4373.6133    
     10670   580.36404     -918.14759     -2769.8789      4367.7183    
     10680   657.49878     -920.50116     -1100.871       4361.0658    
     10690   659.73972     -920.84246      937.31793      4354.2074    
     10700   618.94498     -920.02844      2644.6225      4347.7646    
     10710   633.79662     -920.78674      3641.9613      4342.2516    
     10720   641.23241     -921.36287      4281.6658      4337.9713    
     10730   611.42368     -920.89736      4623.3025      4335.0965    
     10740   558.12436     -919.72164      4508.0266      4333.7015    
     10750   513.72722     -918.71024      4090.7841      4333.729     
     10760   525.17141     -919.17791      3644.7118      4335.0335    
     10770   547.16441     -919.89367      3214.3238      4337.4588    
     10780   510.49847     -918.93402      2733.9558      4340.8536    
     10790   547.13844     -919.97119      1897.4483      4345.0464    
     10800   615.61633     -921.86763      996.2185       4349.7782    
     10810   593.38982     -921.24068      333.07966      4354.7691    
     10820   576.72224     -920.76415     -514.45961      4359.7967    
     10830   623.5077      -922.04309     -1885.3685      4364.5829    
     10840   611.93007     -921.70215     -3214.3326      4368.7163    
     10850   567.57275     -920.45668     -4182.0584      4371.7919    
     10860   519.98268     -919.10633     -4632.9898      4373.5199    
     10870   536.39974     -919.50516     -4638.3768      4373.7725    
     10880   590.38875     -920.91614     -4315.8831      4372.5642    
     10890   580.26789     -920.52998     -3437.5569      4370.0271    
     10900   556.39581     -919.75201     -2408.7222      4366.4492    
     10910   616.04878     -921.27433     -1738.0166      4362.1537    
     10920   605.49787     -920.83268     -688.63946      4357.3892    
     10930   542.31607     -918.93262      504.68719      4352.4852    
     10940   578.00807     -919.76099      1423.8838      4347.8059    
     10950   623.66397     -920.83625      2159.8907      4343.6367    
     10960   554.46988     -918.72339      3034.0909      4340.2116    
     10970   564.89972     -918.82835      3551.927       4337.7725    
     10980   592.31089     -919.3819       3998.6756      4336.4788    
     10990   573.652       -918.65796      4388.5996      4336.4542    
     11000   636.71259     -920.21142      4308.6166      4337.7919    
     11010   691.61254     -921.556        3914.5229      4340.4591    
     11020   623.12107     -919.53153      3284.3082      4344.325     
     11030   601.79548     -918.85773      1923.9287      4349.1676    
     11040   640.23005     -919.8533       214.51195      4354.5639    
     11050   591.14402     -918.42873     -1178.1017      4359.9911    
     11060   586.29123     -918.23811     -2237.1191      4365.0108    
     11070   647.54361     -919.88454     -3109.4807      4369.2844    
     11080   614.12682     -918.91752     -3503.0118      4372.5538    
     11090   597.32685     -918.42783     -4053.7803      4374.6792    
     11100   649.8388      -919.87573     -4439.7981      4375.5053    
     11110   601.55435     -918.54273     -4089.8602      4374.9395    
     11120   551.00485     -917.14756     -3663.8652      4373.0878    
     11130   636.93089     -919.53705     -3525.5016      4370.0882    
     11140   636.49261     -919.53813     -2758.3938      4366.0233    
     11150   581.13018     -918.02266     -1205.7311      4361.156     
     11160   651.02355     -919.99076      72.627217      4355.9497    
     11170   644.54807     -919.85248      1515.5634      4350.8323    
     11180   590.07048     -918.39233      2764.3397      4346.2427    
     11190   637.48157     -919.76743      3409.8902      4342.5519    
     11200   661.38628     -920.51604      3921.6969      4339.9659    
     11210   595.61474     -918.79388      4392.2566      4338.6369    
     11220   606.44344     -919.20709      4109.4246      4338.6772    
     11230   608.84877     -919.39199      3456.1666      4339.9998    
     11240   598.05341     -919.21327      2838.775       4342.4041    
     11250   614.51928     -919.79633      2028.7684      4345.682     
     11260   598.74986     -919.49067      1162.3735      4349.582     
     11270   540.84697     -917.99677      61.808421      4353.8224    
     11280   574.29096     -919.0152      -1141.0276      4358.0599    
     11290   616.29264     -920.26597     -1990.444       4361.9269    
     11300   582.0025      -919.39768     -2217.7342      4365.1662    
     11310   607.76569     -920.19986     -2529.5596      4367.6852    
     11320   653.20363     -921.57005     -2962.5949      4369.3887    
     11330   616.08585     -920.684       -3073.4753      4370.1582    
     11340   569.74649     -919.55654     -3242.7949      4369.9505    
     11350   600.13147     -920.58273     -3593.802       4368.7121    
     11360   549.40237     -919.38141     -3139.37        4366.3708    
     11370   502.34456     -918.27314     -2264.9987      4363.0646    
     11380   575.50469     -920.52581     -1494.0427      4359.0624    
     11390   597.02023     -921.40543     -406.33437      4354.6267    
     11400   552.2779      -920.49156      1003.0832      4350.1056    
     11410   561.89581     -921.11548      2033.1924      4345.9226    
     11420   581.63922     -922.06025      2486.9         4342.3933    
     11430   538.88316     -921.24985      2731.6475      4339.665     
     11440   516.55902     -920.93682      2861.4703      4337.8087    
     11450   506.05463     -920.86958      3246.5295      4336.8719    
     11460   536.84112     -921.88137      3518.6352      4336.9581    
     11470   564.10765     -922.75318      3278.4457      4338.1373    
     11480   523.98676     -921.7102       2848.533       4340.3424    
     11490   526.20391     -921.80204      2166.5843      4343.4325    
     11500   561.62695     -922.78112      1245.3839      4347.1935    
     11510   541.52903     -922.19383      286.33425      4351.3402    
     11520   487.06402     -920.62339     -710.95726      4355.5718    
     11530   533.15411     -921.81082     -2093.9158      4359.5596    
     11540   539.10612     -921.84455     -3056.2216      4362.8913    
     11550   473.29833     -919.86944     -3364.5005      4365.2696    
     11560   504.79629     -920.57259     -3682.7945      4366.5742    
     11570   554.84824     -921.74844     -3595.1525      4366.7215    
     11580   558.37843     -921.62046     -2930.391       4365.7475    
     11590   554.7924      -921.30548     -2056.754       4363.8561    
     11600   582.4376      -921.86354     -1273.0421      4361.3208    
     11610   589.55309     -921.861       -620.23116      4358.3938    
     11620   601.95903     -922.02832     -241.39761      4355.276     
     11630   550.69142     -920.44633      377.96765      4352.1059    
     11640   517.28269     -919.37066      961.47621      4349.0687    
     11650   561.67208     -920.43838      1392.3312      4346.3448    
     11660   584.59003     -920.89435      1881.9884      4344.0732    
     11670   538.79344     -919.44976      2311.9566      4342.4031    
     11680   523.28001     -918.84959      2546.198       4341.4645    
     11690   570.07946     -919.96042      2684.1213      4341.3304    
     11700   611.52047     -920.91068      2975.0214      4342.0505    
     11710   619.57623     -920.95117      2946.2054      4343.702     
     11720   617.24209     -920.73254      2303.4974      4346.2698    
     11730   587.10766     -919.7641       1226.8812      4349.5549    
     11740   573.21831     -919.25567      336.45933      4353.2383    
     11750   592.10647     -919.65178     -395.55916      4357.0362    
     11760   625.82901     -920.45805     -1258.4128      4360.7086    
     11770   600.19847     -919.62557     -2034.9562      4363.9901    
     11780   593.82995     -919.34074     -2588.6911      4366.6354    
     11790   625.11979     -920.10487     -2783.0373      4368.4712    
     11800   599.88959     -919.30905     -2720.3843      4369.4331    
     11810   580.99157     -918.69762     -2877.9831      4369.5264    
     11820   620.15653     -919.69784     -3083.953       4368.7075    
     11830   604.41588     -919.17483     -2786.243       4366.9284    
     11840   606.92541     -919.16855     -2080.2022      4364.2809    
     11850   625.2702      -919.606       -1248.7808      4360.9852    
     11860   568.42378     -917.95763     -369.57763      4357.3051    
     11870   597.05061     -918.6775       398.49457      4353.513     
     11880   659.64506     -920.33168      1280.7453      4349.8595    
     11890   608.09838     -918.83031      2326.9324      4346.6258    
     11900   595.52951     -918.4243       2935.5137      4344.1217    
     11910   643.7257      -919.70844      3110.3903      4342.535     
     11920   615.07946     -918.86849      3497.5316      4341.9439    
     11930   633.52656     -919.3545       3405.1304      4342.4451    
     11940   684.5355      -920.76845      2892.7088      4344.0131    
     11950   631.90768     -919.34586      2437.7294      4346.5024    
     11960   565.54019     -917.55668      1845.2656      4349.768     
     11970   634.16303     -919.5211       667.57642      4353.6082    
     11980   653.67897     -920.14346     -521.44825      4357.6727    
     11990   605.46099     -918.91779     -1540.3694      4361.5886    
     12000   573.04032     -918.14301     -2234.4526      4365.0365    
     12010   581.61064     -918.51323     -2806.9742      4367.7865    
     12020   594.92168     -919.02797     -3293.6597      4369.6541    
     12030   594.16288     -919.17397     -3655.2324      4370.4807    
     12040   582.36626     -919.02882     -3682.1711      4370.1587    
     12050   594.37162     -919.56572     -3520.6172      4368.6703    
     12060   570.79219     -919.12255     -2699.5597      4366.0861    
     12070   598.23204     -920.10236     -1697.7197      4362.6513    
     12080   643.04553     -921.59191     -663.75971      4358.6833    
     12090   639.5151      -921.77721      325.67673      4354.5077    
     12100   587.47479     -920.61314      1411.2791      4350.4473    
     12110   594.62635     -921.07469      1954.5321      4346.8192    
     12120   585.40196     -921.06105      2287.46        4343.8085    
     12130   549.58615     -920.27072      2502.0936      4341.5179    
     12140   501.28164     -919.07161      2739.2767      4340.0192    
     12150   519.18118     -919.65414      2791.6853      4339.3802    
     12160   563.83847     -920.94095      2765.1972      4339.6217    
     12170   568.88289     -921.10572      2621.0164      4340.736     
     12180   531.6141      -920.07297      2304.0202      4342.6799    
     12190   544.39673     -920.40433      1735.772       4345.3526    
     12200   577.95429     -921.28647      988.32001      4348.5804    
     12210   568.50905     -920.95969      362.81192      4352.1386    
     12220   557.29145     -920.57243     -220.60868      4355.8283    
     12230   585.43157     -921.2631      -1003.2757      4359.4581    
     12240   610.36108     -921.85479     -1784.3494      4362.7867    
     12250   602.20536     -921.53456     -2368.191       4365.5671    
     12260   561.40476     -920.31314     -2823.8086      4367.6117    
     12270   565.91623     -920.34527     -3459.4273      4368.7601    
     12280   574.30068     -920.47141     -3690.1761      4368.8263    
     12290   548.23876     -919.6333      -3411.8302      4367.7345    
     12300   552.23199     -919.61814     -2725.0437      4365.5714    
     12310   601.43199     -920.84095     -2051.8386      4362.5388    
     12320   564.07574     -919.65493     -1161.4486      4358.8621    
     12330   551.36818     -919.15868     -334.83064      4354.8147    
     12340   589.94368     -920.07357      366.97874      4350.6562    
     12350   599.07274     -920.1681       1465.1606      4346.6262    
     12360   582.48453     -919.56317      2476.9331      4343.0548    
     12370   575.11066     -919.22616      3268.0462      4340.258     
     12380   572.12158     -919.01667      4005.1477      4338.4865    
     12390   614.9049      -920.08568      4570.9994      4337.9737    
     12400   684.83802     -921.9333       4475.2138      4338.8841    
     12410   654.28961     -921.04259      3962.9568      4341.2024    
     12420   592.62067     -919.32493      2965.2137      4344.7721    
     12430   606.14537     -919.70193      1459.7029      4349.2831    
     12440   602.79389     -919.60732      27.723071      4354.2838    
     12450   552.52037     -918.20105     -1288.7898      4359.3225    
     12460   566.33212     -918.55588     -2607.3574      4363.9768    
     12470   603.65057     -919.54871     -3598.658       4367.8331    
     12480   560.51501     -918.3012      -3766.5261      4370.587     
     12490   603.67521     -919.44853     -3887.2785      4372.1523    
     12500   661.28247     -921.00316     -3796.9279      4372.4924    
     12510   593.61787     -919.10188     -3228.9651      4371.6414    
     12520   590.10403     -918.99178     -2996.5955      4369.7521    
     12530   663.95996     -921.03743     -2797.1185      4366.9058    
     12540   598.79695     -919.24066     -1820.6039      4363.1895    
     12550   539.51391     -917.60293     -679.12962      4358.8959    
     12560   630.76353     -920.13161     -55.822915      4354.3645    
     12570   620.83101     -919.84956      979.10916      4349.8237    
     12580   562.3402      -918.22104      2421.6236      4345.5988    
     12590   635.72617     -920.25048      3346.7142      4342.1151    
     12600   663.9268      -921.04041      4117.0126      4339.6798    
     12610   597.8251      -919.23836      4573.7836      4338.5327    
     12620   619.81253     -919.90039      4104.4753      4338.8014    
     12630   626.05567     -920.14336      3363.6378      4340.3633    
     12640   564.56329     -918.51298      2700.0867      4343.0012    
     12650   569.92655     -918.73427      1687.1361      4346.497     
     12660   570.87729     -918.82101      700.81658      4350.5488    
     12670   563.26846     -918.65664     -110.15982      4354.8537    
     12680   607.86825     -919.93559     -1019.4047      4359.1456    
     12690   627.5739      -920.53445     -1651.5699      4363.1469    
     12700   591.78307     -919.61002     -2049.8597      4366.6548    
     12710   623.71783     -920.58886     -2992.1128      4369.5141    
     12720   641.18675     -921.21005     -3783.075       4371.4421    
     12730   563.2752      -919.21654     -3734.0183      4372.2       
     12740   555.01563     -919.16608     -3732.5663      4371.769     
     12750   596.6528      -920.52217     -3825.8415      4370.1462    
     12760   579.74152     -920.27659     -3227.2696      4367.3215    
     12770   549.45557     -919.65148     -2056.8027      4363.48      
     12780   603.72051     -921.37854     -1146.1597      4358.9661    
     12790   590.07071     -921.22803     -41.668811      4354.0878    
     12800   550.50736     -920.33674      1021.0027      4349.1842    
     12810   552.99317     -920.58318      1777.8163      4344.5847    
     12820   553.02557     -920.73723      2330.2106      4340.5302    
     12830   493.34249     -919.18873      3103.3547      4337.208     
     12840   510.64629     -919.72943      3722.0727      4334.8491    
     12850   584.69739     -921.8153       4186.9726      4333.6513    
     12860   596.76215     -922.16863      4686.7013      4333.7716    
     12870   590.01138     -922.00153      4653.072       4335.357     
     12880   586.3908      -921.92169      3942.6833      4338.4015    
     12890   552.98486     -921.00281      2801.5694      4342.7015    
     12900   554.16496     -921.02319      1102.3023      4347.8995    
     12910   551.6272      -920.90752     -488.44741      4353.487     
     12920   535.80066     -920.39047     -1702.4959      4358.9679    
     12930   532.31753     -920.1782      -2767.1342      4363.9495    
     12940   549.4682      -920.49624     -3857.9969      4368.0807    
     12950   542.55397     -920.10502     -4342.1776      4371.0258    
     12960   532.72747     -919.60284     -4339.7854      4372.6166    
     12970   589.67563     -920.91639     -4245.0097      4372.8342    
     12980   626.50786     -921.64457     -3910.0121      4371.707     
     12990   575.88956     -919.97101     -3133.1792      4369.3433    
     13000   579.64441     -919.84222     -2361.3249      4365.974     
     13010   636.65975     -921.20168     -1577.6603      4361.8423    
     13020   620.03592     -920.55018     -311.64541      4357.2136    
     13030   578.74802     -919.25847      788.19128      4352.4695    
     13040   587.10658     -919.36652      1431.588       4347.9478    
     13050   581.8328      -919.1047       2305.8748      4343.8744    
     13060   551.82526     -918.16356      3302.4458      4340.5204    
     13070   592.83476     -919.19641      3812.7278      4338.1831    
     13080   616.53382     -919.75153      3962.8175      4337.0316    
     13090   625.13759     -919.91079      3990.1477      4337.1251    
     13100   620.5515      -919.72825      3839.9889      4338.4771    
     13110   601.34117     -919.15771      3350.9923      4341.044     
     13120   624.3599      -919.77073      2461.2945      4344.6799    
     13130   634.5202      -920.03884      1330.9354      4349.116     
     13140   596.57687     -918.98301      278.37068      4354.0111    
     13150   584.84975     -918.65376     -667.07953      4359.037     
     13160   612.15438     -919.40164     -1787.6961      4363.8849    
     13170   623.34755     -919.70317     -2869.5018      4368.2017    
     13180   623.73649     -919.71784     -3596.3815      4371.6456    
     13190   606.02025     -919.24122     -4206.4814      4373.9692    
     13200   602.94686     -919.18054     -4614.7924      4374.9715    
     13210   593.29581     -918.94125     -4556.2544      4374.521     
     13220   594.86804     -919.01545     -4202.7336      4372.6228    
     13230   612.56284     -919.54138     -3592.1301      4369.382     
     13240   603.45792     -919.32907     -2507.9538      4364.9975    
     13250   574.70463     -918.56905     -1163.2779      4359.8047    
     13260   596.68366     -919.20608      83.831503      4354.2197    
     13270   640.39982     -920.45086      1422.5286      4348.6442    
     13280   580.61588     -918.82514      2961.1718      4343.5074    
     13290   605.87539     -919.56531      3806.5698      4339.2654    
     13300   650.47261     -920.85937      4385.4324      4336.2013    
     13310   615.22266     -919.96793      4988.2246      4334.5098    
     13320   589.10837     -919.3538       5037.4624      4334.3675    
     13330   615.26979     -920.21483      4358.9865      4335.7937    
     13340   597.46583     -919.88162      3480.1028      4338.6052    
     13350   568.41383     -919.24793      2448.2773      4342.5342    
     13360   572.19175     -919.53146      1381.7619      4347.2697    
     13370   566.32686     -919.54558      447.75439      4352.4892    
     13380   597.94309     -920.60668     -921.30518      4357.8807    
     13390   600.80852     -920.88627     -2237.2936      4363.0266    
     13400   551.77024     -919.72037     -3027.4597      4367.519     
     13410   556.07714     -920.01953     -3860.8342      4371.0794    
     13420   565.92896     -920.46437     -4550.004       4373.4389    
     13430   544.02435     -920.00916     -4800.2823      4374.3752    
     13440   570.23734     -920.8758      -4851.1073      4373.7903    
     13450   592.96479     -921.64524     -4435.5562      4371.6664    
     13460   550.56694     -920.59578     -3209.9978      4368.141     
     13470   546.03202     -920.57211     -2110.9013      4363.5691    
     13480   581.42042     -921.63893     -1136.8301      4358.3003    
     13490   562.74449     -921.18522      244.33342      4352.6608    
     13500   566.32662     -921.3317       1609.4879      4347.0733    
     13510   564.81853     -921.31636      2657.2097      4341.9609    
     13520   557.56786     -921.12336      3320.5592      4337.6539    
     13530   546.47208     -920.80215      3834.2363      4334.3701    
     13540   544.02051     -920.69515      4160.3128      4332.2723    
     13550   546.65425     -920.69855      4400.4352      4331.4715    
     13560   534.68626     -920.26025      4568.1269      4332.0531    
     13570   538.21464     -920.20783      4194.0027      4334.0651    
     13580   539.12902     -920.02521      3578.3536      4337.4124    
     13590   563.99481     -920.44347      2692.2575      4341.9133    
     13600   586.1227      -920.72252      1524.2513      4347.2989    
     13610   594.97171     -920.6019       448.93695      4353.2219    
     13620   607.64042     -920.59138     -759.57157      4359.3387    
     13630   627.19953     -920.80198     -2116.5051      4365.2676    
     13640   630.03738     -920.6025      -3310.9598      4370.58      
     13650   593.48702     -919.37408     -4086.4282      4374.8948    
     13660   591.32446     -919.14913     -4711.2509      4377.943     
     13670   629.02        -920.06015     -5378.0005      4379.5056    
     13680   614.8771      -919.56768     -5667.6415      4379.3689    
     13690   565.66942     -918.13104     -5300.5517      4377.4366    
     13700   592.89902     -918.82689     -4512.503       4373.8075    
     13710   605.89422     -919.12664     -3254.5202      4368.7289    
     13720   586.38197     -918.52912     -1980.0185      4362.5831    
     13730   583.58074     -918.39251     -551.36505      4355.7815    
     13740   594.99236     -918.63998      1188.0692      4348.7812    
     13750   608.85579     -918.94656      3055.8714      4342.1264    
     13760   635.99645     -919.6244       4857.4807      4336.4041    
     13770   638.19502     -919.6266       6060.4163      4332.1655    
     13780   641.3385      -919.68275      6752.6646      4329.7991    
     13790   685.21592     -920.91043      6827.2063      4329.5267    
     13800   663.68637     -920.37614      6386.2431      4331.3899    
     13810   606.64309     -918.89126      5247.1692      4335.2645    
     13820   615.7959      -919.25828      3326.7291      4340.8094    
     13830   599.31342     -918.91439      1414.7807      4347.4599    
     13840   568.56095     -918.16389     -106.15257      4354.6354    
     13850   572.47234     -918.35439     -1670.9956      4361.8449    
     13860   612.57303     -919.54168     -3341.2886      4368.586     
     13870   586.37484     -918.88514     -4562.4444      4374.3346    
     13880   578.09175     -918.7227      -5332.7361      4378.6852    
     13890   619.72763     -919.95048     -5840.2477      4381.3694    
     13900   637.88251     -920.55241     -6034.6577      4382.21      
     13910   583.01522     -919.14732     -5730.3486      4381.1369    
     13920   593.6619      -919.56896     -5280.6598      4378.2225    
     13930   619.35991     -920.42684     -4331.5532      4373.6151    
     13940   560.39171     -918.93451     -2784.2255      4367.6145    
     13950   577.11302     -919.53024     -1209.2192      4360.6957    
     13960   644.61076     -921.54618      238.63211      4353.3528    
     13970   600.86684     -920.49226      1999.5355      4346.0604    
     13980   543.96158     -919.06006      3674.6863      4339.3628    
     13990   577.84057     -920.13657      4910.8702      4333.7775    
     14000   600.04875     -920.89622      5911.3662      4329.7038    
     14010   582.50045     -920.56317      6431.9815      4327.4528    
     14020   582.50845     -920.72765      6249.4308      4327.1907    
     14030   576.68678     -920.73913      5607.2681      4328.8817    
     14040   550.43449     -920.17896      4780.5257      4332.3479    
     14050   540.2203      -920.04712      3606.6988      4337.3438    
     14060   538.84804     -920.13798      2081.8168      4343.5169    
     14070   528.03376     -919.9338       524.30603      4350.4094    
     14080   562.45946     -920.95818     -1132.1521      4357.5322    
     14090   573.3798      -921.3102      -2416.4405      4364.3758    
     14100   557.19406     -920.89381     -3467.9222      4370.5195    
     14110   584.5473      -921.6735      -4696.728       4375.6062    
     14120   609.15888     -922.37752     -5778.1042      4379.2368    
     14130   550.24311     -920.7665      -6092.353       4381.0683    
     14140   523.18951     -920.02831     -6242.6183      4380.9631    
     14150   572.122       -921.37973     -6212.7363      4378.8597    
     14160   533.69967     -920.27569     -5154.7918      4374.7824    
     14170   520.44755     -919.8335      -3477.9243      4369.0481    
     14180   586.58334     -921.52963     -1844.0128      4362.1678    
     14190   586.25025     -921.31378      24.580219      4354.6706    
     14200   540.91467     -919.81114      1959.276       4347.1453    
     14210   580.83603     -920.63068      3305.9049      4340.1824    
     14220   597.7314      -920.76206      4509.8147      4334.223     
     14230   549.99846     -919.10718      5720.8956      4329.6536    
     14240   587.5086      -919.83515      6152.6236      4326.831     
     14250   588.90432     -919.56878      6488.4994      4325.9236    
     14260   562.09573     -918.56541      6723.2008      4327.0485    
     14270   620.02698     -919.94617      6064.6227      4330.2722    
     14280   667.19707     -921.05402      5006.8452      4335.4276    
     14290   622.30255     -919.66088      3842.9815      4342.2161    
     14300   635.92022     -919.9356       1890.2494      4350.2686    
     14310   644.54081     -920.08703     -456.23531      4358.996     
     14320   600.34611     -918.78751     -2625.2588      4367.6754    
     14330   584.52669     -918.27809     -4709.1763      4375.6042    
     14340   580.17871     -918.0779      -6439.8501      4382.109     
     14350   558.41399     -917.38635     -7336.0002      4386.6274    
     14360   582.30073     -917.95634     -7551.5694      4388.8407    
     14370   652.69911     -919.81801     -7217.2942      4388.6547    
     14380   670.40077     -920.24462     -6172.9848      4386.1664    
     14390   632.75072     -919.17725     -4917.8716      4381.6832    
     14400   630.97962     -919.13134     -3734.367       4375.5939    
     14410   670.06823     -920.24412     -2463.2553      4368.2757    
     14420   608.44852     -918.5816      -653.65364      4360.1498    
     14430   565.91695     -917.44433      965.88589      4351.7673    
     14440   613.20999     -918.78936      2334.791       4343.6401    
     14450   623.94821     -919.11885      4043.4586      4336.2186    
     14460   596.57879     -918.39476      5991.6217      4330.039     
     14470   639.08826     -919.62455      7260.047       4325.6875    
     14480   669.29578     -920.55369      7775.6465      4323.5686    
     14490   623.90467     -919.43286      7681.2974      4323.8608    
     14500   590.99882     -918.68573      6774.5738      4326.5459    
     14510   582.70138     -918.63005      5557.0438      4331.3821    
     14520   580.4435      -918.74009      3875.8044      4338.0051    
     14530   592.95979     -919.25573      1943.4659      4345.9164    
     14540   592.49718     -919.40423      72.99337       4354.5306    
     14550   607.63959     -919.98168     -1607.706       4363.2659    
     14560   636.46136     -920.94983     -3270.5917      4371.579     
     14570   623.58817     -920.78139     -4921.4099      4378.9285    
     14580   574.23049     -919.59438     -6236.617       4384.7825    
     14590   607.51839     -920.70201     -7454.0126      4388.6852    
     14600   599.06161     -920.66485     -8054.9354      4390.2394    
     14610   529.69296     -918.9191      -7982.7488      4389.2299    
     14620   518.89457     -918.76533     -7523.8007      4385.6512    
     14630   555.84886     -919.91052     -6425.0142      4379.6453    
     14640   550.00324     -919.83868     -4356.6161      4371.5676    
     14650   562.7078      -920.24637     -1909.3917      4362.0594    
     14660   619.97584     -921.86601      626.25214      4351.8932    
     14670   600.83245     -921.34799      3411.3707      4341.8814    
     14680   564.82136     -920.34498      5621.5496      4332.8785    
     14690   597.91367     -921.24749      6992.6972      4325.5725    
     14700   605.9016      -921.45346      7968.3302      4320.4078    
     14710   561.67255     -920.21639      8514.5828      4317.694     
     14720   544.03204     -919.71481      8309.885       4317.6038    
     14730   557.20566     -920.05568      7549.0533      4320.1012    
     14740   564.22074     -920.20807      6474.69        4324.9833    
     14750   561.30075     -920.06533      5029.3753      4331.9394    
     14760   556.91288     -919.85282      3331.5209      4340.5506    
     14770   582.94519     -920.44579      1203.9725      4350.3017    
     14780   608.98178     -920.9912      -1272.7813      4360.5342    
     14790   591.27874     -920.28772     -3411.3734      4370.4862    
     14800   590.00969     -920.0091      -5303.7322      4379.4581    
     14810   599.75554     -919.99849     -6881.2905      4386.8284    
     14820   592.96521     -919.49648     -8116.1867      4392.0625    
     14830   578.3386      -918.76218     -8792.0148      4394.7411    
     14840   605.38127     -919.16818     -8787.8009      4394.6208    
     14850   605.40358     -918.82421     -7837.7495      4391.689     
     14860   638.49293     -919.42984     -6428.6012      4386.2188    
     14870   634.32405     -919.0489      -4667.5613      4378.6528    
     14880   622.35156     -918.52128     -2699.0311      4369.5451    
     14890   667.57828     -919.63462     -491.74678      4359.525     
     14900   660.77177     -919.35373      1898.8852      4349.2934    
     14910   585.52909     -917.20435      4112.3006      4339.6006    
     14920   633.28387     -918.48483      5448.1577      4331.1184    
     14930   633.56386     -918.4588       7071.5275      4324.3091    
     14940   605.59877     -917.66701      8483.103       4319.662     
     14950   654.59575     -919.03785      9150.2076      4317.6167    
     14960   635.42026     -918.55108      9054.7004      4318.3995    
     14970   597.8353      -917.57793      8216.3807      4322.0116    
     14980   649.97968     -919.11474      6521.4318      4328.2215    
     14990   646.02415     -919.11615      4770.9302      4336.5616    
     15000   614.02341     -918.3471       2769.0189      4346.5118    
     15010   669.41262     -920.01564     -1.1259374      4357.4468    
     15020   629.20464     -919.03799     -2516.246       4368.5327    
     15030   591.89111     -918.12754     -4741.1168      4378.9641    
     15040   651.42842     -919.9092      -7018.5629      4387.9954    
     15050   631.23994     -919.5003      -8501.381       4394.8926    
     15060   583.73777     -918.33583     -9252.1007      4399.1391    
     15070   655.48462     -920.50873     -9930.105       4400.4319    
     15080   621.87317     -919.79818     -9804.8609      4398.5427    
     15090   527.6939      -917.38942     -8565.2341      4393.492     
     15100   589.42217     -919.28975     -7027.3745      4385.6308    
     15110   618.348       -920.27822     -4956.0646      4375.4515    
     15120   532.41943     -918.04487     -2164.6916      4363.619     
     15130   541.59502     -918.39408      649.6244       4351.0012    
     15140   613.56308     -920.44741      3630.2851      4338.4982    
     15150   605.05167     -920.24137      6861.1276      4327.0555    
     15160   617.91562     -920.6246       9336.2109      4317.6559    
     15170   638.88247     -921.25292      10871.953      4311.0729    
     15180   621.83275     -920.86045      11602.885      4307.8009    
     15190   609.99097     -920.65092      11525.115      4308.0933    
     15200   579.7352      -919.9523       10441.264      4311.9616    
     15210   568.6451      -919.78897      8289.0758      4319.1203    
     15220   583.24812     -920.32603      5590.2906      4328.9729    
     15230   586.43444     -920.52875      2872.5819      4340.7375    
     15240   546.69471     -919.50503      195.42856      4353.5964    
     15250   559.54738     -919.89857     -3004.586       4366.6987    
     15260   566.66138     -920.08807     -6087.3227      4379.0382    
     15270   544.65399     -919.43635     -8268.3454      4389.6215    
     15280   542.10641     -919.30095     -9666.481       4397.6992    
     15290   579.34971     -920.25439     -10664.819      4402.7589    
     15300   603.01869     -920.82967     -11164.68       4404.4294    
     15310   585.32304     -920.26887     -10733.539      4402.5167    
     15320   602.42449     -920.68305     -9507.1443      4397.1164    
     15330   609.18416     -920.80364     -7540.672       4388.5962    
     15340   570.62434     -919.64953     -4955.0576      4377.5686    
     15350   566.86403     -919.4201      -2122.1759      4364.8449    
     15360   618.93037     -920.67124      807.35467      4351.3225    
     15370   617.49709     -920.36994      4088.8429      4337.9446    
     15380   601.67725     -919.63231      7079.8594      4325.7284    
     15390   615.92196     -919.69748      9347.2335      4315.6024    
     15400   620.73182     -919.4893       10838.12       4308.2804    
     15410   600.83269     -918.61666      11413.32       4304.2332    
     15420   575.7099      -917.63717      11581.789      4303.686     
     15430   589.08142     -917.75835      11214.825      4306.7284    
     15440   605.57975     -917.99549      10150.504      4313.3005    
     15450   627.08016     -918.4095       8030.7352      4323.1283    
     15460   647.97014     -918.84169      5294.9459      4335.6345    
     15470   667.66058     -919.27318      2158.9884      4350.0184    
     15480   694.55919     -919.93556     -1273.0835      4365.3264    
     15490   667.54111     -919.13013     -4765.5943      4380.4788    
     15500   614.85339     -917.6221      -8120.7781      4394.3377    
     15510   647.61285     -918.49166     -10994.12       4405.7828    
     15520   671.71668     -919.15448     -12770.876      4413.8381    
     15530   616.18689     -917.65802     -13414.51       4417.8586    
     15540   576.90928     -916.64352     -13474.712      4417.5559    
     15550   626.67343     -918.13285     -12886.699      4412.8588    
     15560   626.0241      -918.25495     -10824.581      4403.9495    
     15570   615.94529     -918.12688     -7660.4881      4391.4661    
     15580   666.26076     -919.67734     -4158.0931      4376.4074    
     15590   654.89174     -919.51286     -518.93672      4359.9022    
     15600   624.8859      -918.81152      3205.4181      4343.1238    
     15610   612.20498     -918.56465      6585.8038      4327.2448    
     15620   584.20175     -917.85709      9725.4358      4313.3364    
     15630   618.57023     -918.87175      12156.082      4302.3573    
     15640   624.75037     -919.1249       13969.139      4295.0658    
     15650   574.92032     -917.84645      14954.697      4292.0222    
     15660   604.3049      -918.7923       14805.539      4293.5488    
     15670   680.55118     -921.09715      13479.888      4299.6447    
     15680   630.83778     -919.95242      11379.699      4309.9815    
     15690   636.0089      -920.34532      7861.2532      4323.9574    
     15700   649.57861     -920.96239      3550.6778      4340.5545    
     15710   576.57835     -919.12359     -744.4467       4358.4763    
     15720   549.58373     -918.4764      -4970.2471      4376.3611    
     15730   592.82013     -919.71218     -8858.4678      4392.8341    
     15740   586.02915     -919.52372     -11937.891      4406.6073    
     15750   537.56078     -918.15919     -13959.302      4416.6302    
     15760   573.64063     -919.14449     -15113.954      4422.1822    
     15770   621.43864     -920.48709     -15247.78       4422.8513    
     15780   569.02209     -919.08836     -14063.347      4418.5807    
     15790   547.23166     -918.55892     -12075.242      4409.7377    
     15800   600.3766      -920.10393     -9415.6255      4396.9828    
     15810   643.65089     -921.36569     -5907.5497      4381.2162    
     15820   599.27069     -920.17336     -1805.4653      4363.5974    
     15830   593.24721     -920.00789      2285.2304      4345.4505    
     15840   600.74991     -920.17084      6218.4354      4328.0881    
     15850   595.52675     -919.94937      9714.7527      4312.7303    
     15860   588.16978     -919.65615      12784.759      4300.4462    
     15870   588.27167     -919.57946      14958.868      4292.1348    
     15880   582.66931     -919.37294      15760.797      4288.4139    
     15890   599.94315     -919.8431       15332.23       4289.5101    
     15900   593.3645      -919.69095      13876.706      4295.2922    
     15910   562.31613     -918.87982      11516.815      4305.3318    
     15920   604.0799      -920.0855       8034.2194      4318.9122    
     15930   597.00126     -919.90811      4394.6107      4335.0044    
     15940   560.27662     -918.87055      708.65867      4352.4779    
     15950   605.78975     -920.06571     -3163.7844      4370.1563    
     15960   624.2245      -920.46573     -6734.2383      4386.8023    
     15970   594.21712     -919.50609     -9781.852       4401.2492    
     15980   614.88163     -919.95503     -12330.873      4412.4888    
     15990   640.08742     -920.55381     -14284.536      4419.6853    
     16000   595.29319     -919.2579      -15048.27       4422.23      
     16010   563.13104     -918.35941     -14642.872      4419.9015    
     16020   559.56269     -918.27475     -13301.679      4412.8766    
     16030   577.62209     -918.78847     -10891.302      4401.6648    
     16040   579.47013     -918.82091     -7442.0157      4387.1239    
     16050   604.84707     -919.45058     -3416.3419      4370.4261    
     16060   634.88065     -920.13036      889.6207       4352.9113    
     16070   627.49117     -919.69632      5137.2269      4335.962     
     16080   638.28914     -919.70096      8882.8769      4320.8926    
     16090   679.80117     -920.50389      11558.109      4308.8053    
     16100   650.24184     -919.31837      13287.446      4300.4592    
     16110   606.34662     -917.76479      13905.353      4296.2954    
     16120   602.54239     -917.33803      13679.47       4296.4355    
     16130   605.15475     -917.10012      12522.047      4300.7368    
     16140   639.67437     -917.76227      10729.486      4308.8103    
     16150   675.74657     -918.4927       8359.5369      4320.0684    
     16160   645.47851     -917.43547      5770.993       4333.7641    
     16170   652.4152      -917.45735      2624.2814      4349.0616    
     16180   746.29121     -919.91397     -1131.261       4364.9527    
     16190   693.73231     -918.35129     -4706.755       4380.2592    
     16200   599.8412      -915.67803     -8008.3559      4393.8326    
     16210   654.4117      -917.14012     -10655.845      4404.6351    
     16220   666.32278     -917.45174     -12159.377      4411.8558    
     16230   632.45417     -916.55098     -12587.941      4415.064     
     16240   634.43866     -916.69292     -12487.022      4414.1738    
     16250   691.16906     -918.41495     -11385.547      4409.3186    
     16260   694.8523      -918.73038     -9028.9448      4400.9638    
     16270   682.96551     -918.66498     -6509.1413      4389.9295    
     16280   665.95692     -918.48096     -4184.6518      4377.0956    
     16290   659.45937     -918.59239     -1543.0874      4363.2783    
     16300   623.8032      -917.86994      1413.9696      4349.3464    
     16310   584.21423     -916.9768       4540.3029      4336.2354    
     16320   611.32814     -917.88485      6962.9967      4324.8634    
     16330   639.43379     -918.80762      8893.1298      4315.9316    
     16340   601.35873     -917.88083      10653.32       4309.9665    
     16350   636.26986     -918.98277      11566.628      4307.3952    
     16360   667.09535     -920.00564      11701.792      4308.4144    
     16370   630.16578     -919.17549      10777.18       4312.9722    
     16380   629.90227     -919.37409      8651.7654      4320.7085    
     16390   637.46399     -919.78828      5828.2763      4330.9251    
     16400   613.6457      -919.3128       2884.0938      4342.7249    
     16410   599.72981     -919.07871     -110.55553      4355.166     
     16420   584.34478     -918.76387     -2963.169       4367.3018    
     16430   582.11697     -918.77538     -5425.0512      4378.2427    
     16440   622.0544      -919.94166     -7318.0816      4387.2318    
     16450   636.40498     -920.41037     -8364.3075      4393.7106    
     16460   605.02889     -919.6271      -8783.5322      4397.3938    
     16470   614.8791      -920.00627     -9213.5541      4398.1901    
     16480   591.25449     -919.47351     -9170.5638      4396.0485    
     16490   526.77054     -917.79452     -8197.8567      4391.0761    
     16500   574.39304     -919.20916     -6756.46        4383.647     
     16510   634.72952     -920.96916     -4851.1001      4374.2946    
     16520   573.37653     -919.34402     -2277.22        4363.6917    
     16530   523.41802     -917.99793      275.94348      4352.6666    
     16540   612.83539     -920.48574      2676.9062      4342.03      
     16550   636.79833     -921.14062      5299.5675      4332.5267    
     16560   587.02169     -919.75296      7536.0613      4324.916     
     16570   602.32678     -920.1798       8431.8925      4319.7962    
     16580   624.19251     -920.80614      8762.8974      4317.3926    
     16590   595.83104     -920.05976      8864.6918      4317.7422    
     16600   605.15292     -920.38126      8188.7378      4320.7932    
     16610   599.99164     -920.31416      6739.5636      4326.2847    
     16620   570.29751     -919.56694      4692.589       4333.7285    
     16630   564.28594     -919.45984      2389.0502      4342.4679    
     16640   576.44864     -919.83376      316.80621      4351.7794    
     16650   568.70471     -919.6309      -1476.8104      4361.0096    
     16660   566.90578     -919.56916     -3410.501       4369.583     
     16670   585.6446      -920.05444     -5177.8267      4376.9109    
     16680   587.07333     -920.04498     -6320.8198      4382.4694    
     16690   563.06016     -919.31811     -7020.2358      4385.9218    
     16700   589.64154     -919.98366     -7429.1334      4387.0835    
     16710   588.89745     -919.87411     -7275.9194      4385.8815    
     16720   565.09301     -919.11007     -6417.6063      4382.4198    
     16730   613.70009     -920.32823     -4982.863       4377.0204    
     16740   671.18848     -921.76051     -3056.2847      4370.183     
     16750   619.01973     -920.14574     -897.35779      4362.5464    
     16760   609.79384     -919.72983      543.28082      4354.7778    
     16770   648.0914      -920.61892      1833.0989      4347.3521    
     16780   597.86801     -919.04895      3245.3916      4340.668     
     16790   564.40763     -917.94993      4218.8433      4335.1262    
     16800   596.39957     -918.64913      4951.5362      4331.0068    
     16810   568.72398     -917.67489      5799.4268      4328.5137    
     16820   559.84998     -917.22093      6245.3658      4327.859     
     16830   643.90751     -919.33009      6124.5468      4329.1421    
     16840   656.00472     -919.44451      5770.2902      4332.3046    
     16850   636.44382     -918.72848      4789.901       4337.1957    
     16860   669.57777     -919.51016      3248.2495      4343.4898    
     16870   658.91205     -919.10827      1842.6853      4350.714     
     16880   662.79634     -919.14894      195.27382      4358.4042    
     16890   664.04998     -919.14808     -1705.1988      4366.0367    
     16900   610.85896     -917.65895     -3407.8872      4373.0286    
     16910   623.49486     -918.0068      -5088.073       4378.8409    
     16920   685.25756     -919.74535     -6525.3847      4382.9576    
     16930   594.51293     -917.28209     -6691.8493      4384.9814    
     16940   568.90797     -916.63551     -6552.6138      4384.8544    
     16950   663.72241     -919.34621     -6140.3277      4382.6571    
     16960   655.29102     -919.22765     -4855.5815      4378.5733    
     16970   614.58752     -918.23893     -3226.7445      4373.0303    
     16980   657.7388      -919.60715     -2056.2673      4366.5479    
     16990   611.59605     -918.52113     -699.52103      4359.5361    
     17000   570.64232     -917.56807      811.7824       4352.4271    
     17010   627.42805     -919.33267      2117.1914      4345.686     
     17020   629.93385     -919.60905      3559.1397      4339.7248    
     17030   608.90849     -919.2419       4723.9353      4334.9633    
     17040   604.25211     -919.335        5317.201       4331.7342    
     17050   580.42781     -918.88608      5820.1594      4330.2109    
     17060   604.72997     -919.76108      6058.9062      4330.5181    
     17070   656.09942     -921.40403      5558.3344      4332.6903    
     17080   599.41226     -920.04705      4770.1559      4336.5659    
     17090   580.50983     -919.70306      3422.9018      4341.8753    
     17100   640.16043     -921.52126      1479.8988      4348.1835    
     17110   597.24404     -920.47116     -224.56348      4354.8992    
     17120   522.06641     -918.47337     -1689.0818      4361.4834    
     17130   565.18401     -919.71326     -3505.4096      4367.4518    
     17140   570.99731     -919.88531     -4686.898       4372.2681    
     17150   532.16746     -918.7948      -5037.1822      4375.5719    
     17160   583.54676     -920.19457     -5257.1847      4377.2448    
     17170   606.95292     -920.81176     -5237.8815      4377.2397    
     17180   574.46356     -919.88473     -4771.5826      4375.5883    
     17190   579.59064     -920.00034     -4007.1864      4372.4561    
     17200   635.16958     -921.51818     -3184.0929      4368.0959    
     17210   581.99275     -920.0196      -1742.5134      4362.8077    
     17220   559.84911     -919.37952     -373.95991      4357.036     
     17230   595.16573     -920.31564      811.49896      4351.2195    
     17240   601.65716     -920.44152      1893.3281      4345.7296    
     17250   584.09975     -919.89627      3136.6537      4340.9113    
     17260   602.06911     -920.33564      4197.3231      4337.1305    
     17270   584.0114      -919.77117      4833.3518      4334.6981    
     17280   584.53259     -919.7225       4905.8037      4333.7908    
     17290   620.11164     -920.64612      4611.5887      4334.4188    
     17300   588.73241     -919.71492      4172.1994      4336.4835    
     17310   556.01503     -918.74612      3241.6931      4339.8236    
     17320   586.28071     -919.50823      2024.1232      4344.1461    
     17330   598.79247     -919.75668      941.55596      4349.0743    
     17340   567.03068     -918.76558      104.47899      4354.2705    
     17350   584.70661     -919.13095     -737.72596      4359.4621    
     17360   637.53927     -920.45066     -1617.3576      4364.3818    
     17370   639.3121      -920.35243     -2516.3392      4368.7549    
     17380   629.48088     -919.9506      -3378.7605      4372.3009    
     17390   647.15654     -920.32939     -4005.0809      4374.755     
     17400   619.99243     -919.48218     -4360.4624      4375.9263    
     17410   572.41214     -918.08138     -4641.9165      4375.7083    
     17420   579.32757     -918.18685     -4734.5736      4374.0246    
     17430   595.20793     -918.52119     -3977.6537      4370.8814    
     17440   608.65869     -918.77068     -2576.3686      4366.5292    
     17450   620.69033     -918.96481     -1029.0079      4361.4118    
     17460   624.41352     -918.91493      374.53992      4356.0197    
     17470   663.55273     -919.83956      1449.7262      4350.7955    
     17480   689.94299     -920.41738      2362.4499      4346.0779    
     17490   619.40204     -918.33157      3396.6748      4342.1566    
     17500   573.53059     -916.9431       3812.8441      4339.3234    
     17510   624.27324     -918.21697      3726.7677      4337.6993    
     17520   630.79294     -918.23785      4093.0642      4337.2755    
     17530   631.64037     -918.09764      4340.5892      4338.1365    
     17540   689.2918      -919.52905      4014.6439      4340.3398    
     17550   692.36336     -919.45988      3303.4176      4343.7831    
     17560   631.52494     -917.65165      2229.9773      4348.2391    
     17570   645.19128     -917.92974      790.56225      4353.364     
     17580   636.99479     -917.60015     -518.33042      4358.717     
     17590   617.67767     -916.96838     -1605.422       4363.8852    
     17600   646.91799     -917.6859      -2583.1374      4368.5196    
     17610   674.18        -918.35877     -3366.8549      4372.3187    
     17620   684.48808     -918.59793     -3989.7333      4375.0319    
     17630   637.41451     -917.29009     -4194.3147      4376.4753    
     17640   607.9386      -916.49787     -4055.9092      4376.5888    
     17650   692.43511     -918.89902     -3731.0858      4375.4202    
     17660   734.49586     -920.19817     -3025.7206      4373.0898    
     17670   634.45213     -917.62493     -1952.1554      4369.8338    
     17680   635.74915     -917.89982     -1604.6757      4365.966     
     17690   692.00384     -919.76605     -1359.3182      4361.6223    
     17700   603.40464     -917.64506     -462.90468      4356.9076    
     17710   559.09543     -916.70385      357.4325       4352.0854    
     17720   633.33995     -919.04776      953.38311      4347.4074    
     17730   579.99932     -917.82675      2400.8005      4343.0966    
     17740   567.60171     -917.68468      3892.9424      4339.5757    
     17750   662.55137     -920.51639      4683.3723      4337.2847    
     17760   656.33559     -920.55529      5111.586       4336.4744    
     17770   637.89581     -920.25828      4890.74        4337.2576    
     17780   655.70943     -920.9774       3953.789       4339.5551    
     17790   612.18724     -919.9864       2752.0187      4343.0809    
     17800   575.64375     -919.15671      1332.8128      4347.4528    
     17810   573.62845     -919.24873      9.7797982      4352.2316    
     17820   544.85507     -918.559       -907.7101       4357.0058    
     17830   555.56303     -918.92495     -1757.9095      4361.4794    
     17840   625.12122     -920.91045     -2817.2016      4365.3704    
     17850   598.84252     -920.23302     -3063.1422      4368.3837    
     17860   578.63879     -919.7222      -3412.9094      4370.4108    
     17870   603.57778     -920.45862     -3801.4673      4371.3459    
     17880   607.33675     -920.61053     -3840.9307      4371.0822    
     17890   569.13289     -919.594       -3490.3388      4369.6175    
     17900   588.96621     -920.18382     -3252.4235      4367.0502    
     17910   572.0374      -919.74228     -2490.1699      4363.4869    
     17920   543.18996     -918.95052     -1349.7291      4359.1728    
     17930   590.21641     -920.24382     -352.74488      4354.4585    
     17940   600.18037     -920.49138      822.27259      4349.6724    
     17950   575.39576     -919.76618      2130.7629      4345.1839    
     17960   592.16786     -920.18408      3157.1399      4341.3892    
     17970   604.70095     -920.47422      3955.8618      4338.6075    
     17980   603.14877     -920.37224      4433.4011      4337.0784    
     17990   628.87629     -921.03214      4257.2452      4336.9338    
     18000   624.41724     -920.86668      3706.3047      4338.1184    
     18010   551.18675     -918.79568      3100.8387      4340.4677    
     18020   567.74862     -919.20401      1911.8892      4343.7671    
     18030   587.6012      -919.67125      977.64465      4347.6708    
     18040   550.15321     -918.52192      293.86788      4351.8802    
     18050   573.66529     -919.03367     -483.05768      4356.1708    
     18060   640.50994     -920.70271     -1225.4114      4360.3       
     18070   627.53803     -920.13659     -1763.9814      4364.0383    
     18080   603.66869     -919.27415     -2588.9215      4367.2011    
     18090   590.63395     -918.70382     -3399.5058      4369.5369    
     18100   594.00147     -918.57447     -3615.057       4370.8065    
     18110   628.17053     -919.28395     -3539.1797      4370.9335    
     18120   631.16526     -919.12576     -3272.7869      4369.945     
     18130   627.26031     -918.7957      -2744.2683      4367.9327    
     18140   662.21267     -919.5624      -1909.9857      4365.0721    
     18150   665.00812     -919.46467     -630.32431      4361.638     
     18160   651.34354     -918.9517       500.10046      4358.0212    
     18170   672.93703     -919.45551      1005.2532      4354.5707    
     18180   655.77943     -918.92541      1105.5831      4351.4474    
     18190   559.93736     -916.23524      1383.8979      4348.6981    
     18200   566.65365     -916.38738      1574.4109      4346.3978    
     18210   641.2899      -918.41108      1740.9967      4344.6064    
     18220   626.7466      -917.96757      2350.3759      4343.3873    
     18230   601.59036     -917.24408      3191.254       4342.9251    
     18240   685.51185     -919.56808      3420.0292      4343.4544    
     18250   697.916       -919.95041      3328.814       4345.0578    
     18260   651.42604     -918.75864      2740.0739      4347.6975    
     18270   637.43406     -918.50706      1699.1781      4351.1912    
     18280   663.72482     -919.42162      413.28088      4355.2125    
     18290   612.94425     -918.23486     -581.75813      4359.3731    
     18300   626.7858      -918.87387     -1541.3306      4363.3488    
     18310   656.70146     -920.01938     -2558.5712      4366.8316    
     18320   610.36518     -919.08951     -3264.6717      4369.5093    
     18330   556.88921     -917.94142     -3609.6234      4371.1588    
     18340   583.30179     -918.97776     -3880.7219      4371.6618    
     18350   615.6321      -920.16231     -3807.4635      4370.9426    
     18360   605.2797      -920.12744     -3223.2501      4369.034     
     18370   585.28792     -919.77526     -2467.7734      4366.1158    
     18380   577.22041     -919.69808     -1680.0685      4362.4289    
     18390   584.6225      -920.00689     -909.97457      4358.2256    
     18400   569.53576     -919.65562      34.054294      4353.7592    
     18410   551.55266     -919.18919      1034.7148      4349.3229    
     18420   584.54557     -920.11252      1983.7982      4345.2294    
     18430   603.23649     -920.62664      3028.9534      4341.7805    
     18440   596.22377     -920.42401      4053.1472      4339.2991    
     18450   632.7323      -921.43855      4417.055       4338.0829    
     18460   622.51943     -921.17026      4261.4724      4338.2485    
     18470   596.47709     -920.47636      3749.6359      4339.749     
     18480   582.18055     -920.10848      2836.4098      4342.4197    
     18490   562.45006     -919.57783      1664.1962      4345.9799    
     18500   540.81521     -918.97121      519.46227      4350.069     
     18510   549.89898     -919.18894     -474.70154      4354.3297    
     18520   565.92083     -919.56899     -1171.6249      4358.4522    
     18530   593.43488     -920.24691     -1620.0333      4362.2144    
     18540   618.54181     -920.84912     -2195.7823      4365.4615    
     18550   581.49755     -919.72522     -2622.7584      4368.02      
     18560   590.45625     -919.87877     -3096.4943      4369.7453    
     18570   609.08366     -920.28994     -3444.3132      4370.4923    
     18580   599.99681     -919.9325      -3463.1424      4370.1551    
     18590   591.65657     -919.59704     -3109.4661      4368.7325    
     18600   595.70021     -919.60098     -2585.5258      4366.3306    
     18610   585.53193     -919.20163     -1682.9379      4363.1275    
     18620   607.8595      -919.69412     -642.82866      4359.405     
     18630   640.79279     -920.47491      190.00345      4355.4838    
     18640   596.52065     -919.1179       1008.5198      4351.6364    
     18650   608.4273      -919.32942      1667.7399      4348.1125    
     18660   617.57928     -919.45659      2596.7462      4345.1355    
     18670   621.10527     -919.43365      3313.4854      4342.9783    
     18680   618.04076     -919.23459      3547.3646      4341.8596    
     18690   630.40095     -919.47499      3268.8763      4341.8496    
     18700   617.4144      -919.02188      2848.3796      4342.871     
     18710   579.20089     -917.87557      2266.4567      4344.7906    
     18720   594.99994     -918.22044      1658.8824      4347.4307    
     18730   622.49557     -918.87557      1149.8808      4350.6056    
     18740   614.95555     -918.55385      694.52711      4354.1528    
     18750   613.68738     -918.4064       308.8557       4357.9335    
     18760   685.8371      -920.29648     -511.28822      4361.8088    
     18770   693.33782     -920.41694     -1257.5687      4365.5353    
     18780   592.6947      -917.57293     -1990.1464      4368.8737    
     18790   619.67702     -918.28478     -3070.1239      4371.5769    
     18800   681.04555     -919.95803     -3889.2124      4373.3146    
     18810   623.84755     -918.37002     -3786.4682      4373.8469    
     18820   620.81002     -918.31591     -3726.3859      4373.1721    
     18830   643.72719     -919.00895     -3510.6299      4371.3184    
     18840   599.66887     -917.86982     -2954.0194      4368.3611    
     18850   596.18853     -917.87672     -2137.2727      4364.4765    
     18860   618.14931     -918.61058     -958.02384      4359.9281    
     18870   617.80337     -918.75018      338.24545      4355.0862    
     18880   639.44512     -919.53888      1382.0985      4350.35      
     18890   621.01188     -919.25681      2406.8809      4346.0557    
     18900   588.84844     -918.60676      3416.6816      4342.5277    
     18910   634.46805     -920.13998      3667.1428      4340.0566    
     18920   616.92788     -919.94924      3825.1561      4338.7419    
     18930   562.20204     -918.69976      4219.4526      4338.6435    
     18940   637.83175     -921.06239      3798.6154      4339.8515    
     18950   635.5364      -921.28111      3103.461       4342.2584    
     18960   528.62946     -918.54394      2327.5779      4345.6528    
     18970   581.73126     -920.19936      1092.5104      4349.7816    
     18980   610.69212     -921.16829     -84.897401      4354.2746    
     18990   540.82168     -919.35696     -983.21683      4358.7686    
     19000   569.84848     -920.25711     -2150.2179      4362.9583    
     19010   579.54193     -920.59769     -2973.8608      4366.4898    
     19020   533.84578     -919.37293     -3207.9097      4369.1062    
     19030   580.15646     -920.6817      -3573.5212      4370.7049    
     19040   605.35047     -921.39244     -3728.293       4371.1791    
     19050   576.7314      -920.60761     -3613.5855      4370.4768    
     19060   576.99573     -920.61947     -3179.8783      4368.6347    
     19070   577.81142     -920.63458     -2398.3937      4365.7905    
     19080   570.03017     -920.39686     -1593.682       4362.1848    
     19090   590.59266     -920.93287     -995.73536      4358.0661    
     19100   571.11534     -920.34517     -202.49081      4353.6354    
     19110   511.47503     -918.62043      975.53723      4349.1521    
     19120   568.49048     -920.10237      1760.4401      4344.9615    
     19130   586.13056     -920.45027      2676.8243      4341.3289    
     19140   548.6423      -919.25264      3757.9875      4338.5437    
     19150   612.19057     -920.84105      4344.8315      4336.9247    
     19160   647.22671     -921.61957      4752.5589      4336.6696    
     19170   601.74404     -920.18451      4786.4323      4337.9047    
     19180   615.24021     -920.40686      3944.3134      4340.632     
     19190   625.66455     -920.54559      2607.8874      4344.6068    
     19200   561.75465     -918.62883      1271.702       4349.4313    
     19210   574.23009     -918.8292      -341.18522      4354.6736    
     19220   582.29017     -918.88043     -1415.7425      4359.8536    
     19230   581.50368     -918.6767      -2052.802       4364.6253    
     19240   617.7108      -919.49315     -2752.5621      4368.7681    
     19250   645.9902      -920.09487     -3467.4667      4372.0559    
     19260   633.28261     -919.5886      -3882.484       4374.2649    
     19270   624.35221     -919.22137     -4119.6351      4375.2517    
     19280   627.57117     -919.21977     -4289.6163      4374.9296    
     19290   570.70051     -917.567       -3938.9132      4373.2564    
     19300   592.42706     -918.10454     -3468.6089      4370.3258    
     19310   631.42723     -919.11945     -2657.3552      4366.2914    
     19320   630.30463     -919.03501     -1189.4725      4361.4237    
     19330   641.07486     -919.30307      217.37649      4356.1644    
     19340   620.65382     -918.71946      1485.6355      4350.9619    
     19350   656.67327     -919.72306      2444.7438      4346.2078    
     19360   658.94245     -919.81472      3623.0103      4342.2237    
     19370   619.32769     -918.76674      4524.6974      4339.3667    
     19380   600.91715     -918.3109       4565.8753      4337.9048    
     19390   645.82013     -919.61965      4109.8475      4337.8667    
     19400   640.49955     -919.54998      3667.2136      4339.1304    
     19410   578.74815     -917.9136       3051.6156      4341.5571    
     19420   575.36755     -917.87855      2147.9357      4344.9582    
     19430   597.80139     -918.54151      1388.9046      4349.0696    
     19440   595.74051     -918.51235      883.32452      4353.6597    
     19450   622.95887     -919.29134      128.17984      4358.5595    
     19460   693.07583     -921.27699     -1174.5356      4363.5233    
     19470   678.32665     -920.94592     -2407.4355      4368.1564    
     19480   573.64674     -918.12745     -3528.8491      4372.06      
     19490   564.45387     -917.9369      -4637.7502      4374.8637    
     19500   618.6588      -919.49383     -5160.3379      4376.2213    
     19510   597.75202     -918.96714     -4834.167       4375.9617    
     19520   567.08176     -918.16084     -3974.3171      4374.1728    
     19530   647.07237     -920.42742     -3202.9439      4371.1015    
     19540   649.98861     -920.56919     -2010.5169      4367.0099    
     19550   618.70922     -919.77942     -935.3429       4362.255     
     19560   640.1555      -920.46647     -70.972565      4357.1764    
     19570   622.47886     -920.08112      688.60009      4352.0513    
     19580   553.73787     -918.26926      1355.3646      4347.122     
     19590   552.39505     -918.30318      2084.2605      4342.5994    
     19600   563.85919     -918.66725      3229.5259      4338.7274    
     19610   567.37012     -918.78674      4096.526       4335.8461    
     19620   627.31546     -920.47036      4478.0346      4334.2253    
     19630   602.38069     -919.80445      5121.0225      4334.0205    
     19640   583.32541     -919.30771      5160.3909      4335.4133    
     19650   636.71479     -920.83183      4257.2818      4338.4216    
     19660   594.46402     -919.70917      3244.6829      4342.8047    
     19670   584.10924     -919.4705       2070.4305      4348.2562    
     19680   667.98743     -921.85705      360.47702      4354.403     
     19690   611.29306     -920.36        -1008.9531      4360.7408    
     19700   555.16376     -918.8777      -2428.3406      4366.8206    
     19710   622.69143     -920.82897     -4105.571       4372.1761    
     19720   591.74236     -920.05783     -5112.3763      4376.291     
     19730   525.06558     -918.28934     -5582.7373      4378.8217    
     19740   590.55076     -920.19076     -6032.6079      4379.5832    
     19750   576.84407     -919.9012      -5714.9921      4378.4415    
     19760   536.93937     -918.88089     -4801.6699      4375.4776    
     19770   606.21051     -920.89606     -4016.2968      4370.9499    
     19780   590.19167     -920.55371     -2753.1199      4365.123     
     19790   529.47046     -918.9647      -1111.3287      4358.3902    
     19800   555.05923     -919.75487      447.27763      4351.2559    
     19810   567.80463     -920.1705       2270.0015      4344.2238    
     19820   578.4764      -920.5139       4243.6268      4337.8695    
     19830   636.25374     -922.17384      5560.3379      4332.7911    
     19840   632.81619     -922.16433      6367.5704      4329.4155    
     19850   602.79283     -921.45314      6549.8698      4328.002     
     19860   579.01093     -920.93522      6043.1185      4328.621     
     19870   551.0914      -920.30603      5023.2001      4331.1361    
     19880   513.83899     -919.39531      3910.8437      4335.2627    
     19890   517.95823     -919.59987      2564.5878      4340.6661    
     19900   539.33944     -920.24645      1103.1385      4346.9429    
     19910   563.14565     -920.92893     -212.8005       4353.6516    
     19920   566.3586      -921.01356     -1560.3637      4360.3728    
     19930   558.28367     -920.7603      -2833.5591      4366.6796    
     19940   563.00955     -920.83869     -3852.0864      4372.1639    
     19950   554.30941     -920.51799     -4738.1915      4376.4826    
     19960   575.45757     -921.00316     -5555.3027      4379.3328    
     19970   586.32895     -921.18197     -5966.7093      4380.4418    
     19980   566.85982     -920.50764     -5784.1736      4379.6651    
     19990   577.65658     -920.66094     -5256.1238      4377.0336    
     20000   556.58718     -919.90868     -4204.2453      4372.7079    
     20010   565.74023     -919.97505     -2942.3508      4367.0011    
     20020   612.1113      -921.04277     -1404.3708      4360.312     
     20030   602.00662     -920.52752      567.76504      4353.131     
     20040   554.52621     -918.98202      2499.3138      4346.0692    
     20050   620.60719     -920.58466      3553.0802      4339.7087    
     20060   628.19506     -920.55934      4622.4962      4334.4174    
     20070   552.65868     -918.26287      5779.2695      4330.5407    
     20080   592.78812     -919.19734      6022.7626      4328.4194    
     20090   646.53157     -920.51206      5724.1589      4328.1621    
     20100   571.20816     -918.27765      5371.1514      4329.7088    
     20110   554.30311     -917.69154      4787.1282      4332.9653    
     20120   621.24007     -919.42676      3747.5789      4337.767     
     20130   617.39288     -919.20187      2751.2482      4343.8271    
     20140   618.7474      -919.14372      1599.0583      4350.8461    
     20150   681.36236     -920.80514     -335.22208      4358.452     
     20160   646.28459     -919.78268     -2136.969       4366.07      
     20170   602.15945     -918.53393     -3698.2491      4373.1228    
     20180   616.29609     -918.90927     -5220.1038      4379.0888    
     20190   606.5235      -918.62427     -6354.5616      4383.4699    
     20200   632.31678     -919.34217     -6940.1263      4385.8797    
     20210   634.59866     -919.43375     -6891.7389      4386.1008    
     20220   573.99644     -917.79441     -6177.0329      4384.1234    
     20230   610.99455     -918.869       -5404.8737      4380.1345    
     20240   654.45835     -920.13795     -4360.061       4374.3694    
     20250   584.31311     -918.26347     -2655.9522      4367.1637    
     20260   577.3777      -918.13345     -860.0719       4359.0324    
     20270   642.25994     -919.99046      1052.6503      4350.5447    
     20280   613.10992     -919.23995      3233.4327      4342.3133    
     20290   587.20682     -918.57856      5033.3716      4335.009     
     20300   634.7212      -919.96423      6247.3785      4329.1993    
     20310   621.64812     -919.6928       7181.0912      4325.2861    
     20320   583.51163     -918.74382      7775.8214      4323.5786    
     20330   625.74026     -920.05224      7669.4106      4324.2789    
     20340   628.9999      -920.31847      6845.9487      4327.3867    
     20350   605.02099     -919.86178      5389.1363      4332.6855    
     20360   600.03314     -919.9561       3562.8774      4339.7625    
     20370   588.50861     -919.87945      1575.7857      4348.0796    
     20380   588.30835     -920.12307     -657.75651      4357.0248    
     20390   577.7005      -920.07397     -2872.7903      4365.9035    
     20400   563.66323     -919.91696     -4783.9872      4374.0126    
     20410   544.88819     -919.6037      -6272.3289      4380.7203    
     20420   553.2027      -920.01979     -7339.699       4385.5181    
     20430   554.97244     -920.23723     -7848.7595      4388.0325    
     20440   564.16361     -920.64572     -7733.0385      4388.065     
     20450   576.7726      -921.14043     -7072.7521      4385.6173    
     20460   565.88226     -920.96809     -5862.0077      4380.8731    
     20470   579.59829     -921.45999     -4281.4502      4374.1963    
     20480   585.81624     -921.72696     -2667.6749      4366.0683    
     20490   540.79317     -920.54034     -983.15071      4356.9998    
     20500   543.76217     -920.64963      645.65384      4347.516     
     20510   539.98012     -920.53006      2699.2586      4338.1475    
     20520   521.46462     -919.95998      5007.2369      4329.5398    
     20530   557.23882     -920.86414      6976.3501      4322.405     
     20540   589.96113     -921.66744      8449.3708      4317.3662    
     20550   577.43731     -921.22488      9239.2179      4314.8988    
     20560   568.38036     -920.89917      9219.3239      4315.2732    
     20570   568.03673     -920.83083      8502.7244      4318.5274    
     20580   551.40897     -920.31928      6842.5357      4324.4751    
     20590   551.01571     -920.25563      4591.099       4332.656     
     20600   574.00522     -920.82849      2257.6449      4342.4178    
     20610   592.60879     -921.26881     -89.431606      4353.0536    
     20620   579.70881     -920.82965     -2335.5365      4363.835     
     20630   531.94197     -919.41023     -4457.6301      4374.0417    
     20640   563.67715     -920.18065     -6549.3807      4382.9699    
     20650   585.64682     -920.66448     -8109.8585      4389.9308    
     20660   558.11304     -919.78036     -9002.8146      4394.3863    
     20670   584.83439     -920.41484     -9522.205       4395.9946    
     20680   585.88715     -920.34729     -9288.6935      4394.5602    
     20690   540.12759     -918.99425     -8031.3707      4390.1324    
     20700   556.12374     -919.35116     -6354.574       4383.0728    
     20710   621.5539      -921.05894     -4369.7864      4373.9012    
     20720   596.9121      -920.25512     -1671.5019      4363.2612    
     20730   590.3958      -919.95072      1076.3994      4351.9907    
     20740   625.96944     -920.79828      3547.4669      4340.9539    
     20750   600.59503     -919.94656      5924.4407      4330.9433    
     20760   624.49099     -920.47209      7779.7858      4322.695     
     20770   625.41258     -920.37273      9039.8552      4316.7983    
     20780   568.67125     -918.69766      9508.9593      4313.6538    
     20790   579.66739     -918.91841      9069.4502      4313.4265    
     20800   571.96724     -918.61974      8166.819       4316.0234    
     20810   525.89194     -917.25115      7289.3767      4321.2165    
     20820   608.07336     -919.42616      5893.4824      4328.7559    
     20830   674.99761     -921.15412      3979.3792      4338.2415    
     20840   597.43981     -918.88896      2214.3499      4349.1301    
     20850   633.41363     -919.78675     -470.97504      4360.8459    
     20860   691.74948     -921.29486     -3563.9653      4372.5616    
     20870   607.42321     -918.86141     -6064.4017      4383.3057    
     20880   558.77869     -917.42731     -8196.5348      4392.2398    
     20890   634.7801      -919.44842     -10177.115      4398.629     
     20900   612.40563     -918.7516      -10817.502      4401.8292    
     20910   582.19901     -917.86958     -10306.978      4401.5837    
     20920   617.51028     -918.82157     -9322.2427      4398.0064    
     20930   642.515       -919.50272     -7910.5165      4391.3922    
     20940   632.40547     -919.22938     -5797.4429      4382.1961    
     20950   626.65365     -919.08878     -3352.1175      4371.081     
     20960   621.54732     -918.96333     -597.97002      4358.834     
     20970   632.02898     -919.26641      2165.8755      4346.3292    
     20980   615.82742     -918.82793      4801.9521      4334.4423    
     20990   599.11184     -918.37866      7097.4624      4323.9966    
     21000   593.79538     -918.25343      8877.7258      4315.7072    
     21010   596.78662     -918.37945      10055.773      4310.1261    
     21020   595.68323     -918.42016      10780.314      4307.6327    
     21030   623.19201     -919.30187      10831.864      4308.4594    
     21040   628.11088     -919.61309      10276.564      4312.6568    
     21050   648.73145     -920.42831      8756.1883      4320.0771    
     21060   637.15832     -920.41128      6398.9111      4330.2961    
     21070   614.73002     -920.11972      3286.4936      4342.6178    
     21080   597.51357     -919.9645      -227.30444      4356.0969    
     21090   579.36997     -919.74427     -3651.8273      4369.6407    
     21100   558.70347     -919.39848     -6676.6966      4382.1541    
     21110   557.76872     -919.54572     -9042.3028      4392.645     
     21120   585.80027     -920.47223     -10834.595      4400.3089    
     21130   575.53379     -920.32714     -11647.17       4404.5451    
     21140   552.69393     -919.82595     -11700.007      4405.0486    
     21150   547.74574     -919.81232     -11011.337      4401.7844    
     21160   554.86161     -920.12226     -9570.6644      4394.9645    
     21170   570.26655     -920.6463      -7319.4409      4385.0606    
     21180   565.98349     -920.59715     -4450.3364      4372.8052    
     21190   559.07875     -920.4361      -1491.9234      4359.1159    
     21200   570.90359     -920.75196      1618.9555      4344.9509    
     21210   551.82513     -920.16109      5173.7852      4331.314     
     21220   563.58437     -920.3834       8350.7273      4319.2953    
     21230   624.77592     -921.95626      10599.678      4309.8589    
     21240   619.88868     -921.70697      12132.489      4303.6971    
     21250   577.08849     -920.43955      12657.684      4301.2627    
     21260   584.34313     -920.58753      11943.617      4302.7097    
     21270   572.95999     -920.22799      10462.443      4307.8445    
     21280   542.27826     -919.32967      8330.2559      4316.2346    
     21290   561.87783     -919.79976      5441.9357      4327.2399    
     21300   554.49188     -919.47072      2688.8181      4340.0103    
     21310   555.32771     -919.32367     -108.34574      4353.6832    
     21320   598.81092     -920.30334     -3126.8721      4367.3692    
     21330   579.93808     -919.51071     -5678.0218      4380.1167    
     21340   588.21723     -919.46433     -7748.3123      4391.0915    
     21350   644.3365      -920.73792     -9798.2023      4399.5883    
     21360   608.27902     -919.48444     -11086.204      4404.9511    
     21370   573.97506     -918.33812     -11432.616      4406.7567    
     21380   639.7963      -920.01048     -11149.098      4404.8777    
     21390   620.93895     -919.37241     -9756.0435      4399.4345    
     21400   572.67153     -917.96294     -7721.0387      4390.8833    
     21410   659.44685     -920.31862     -5511.09        4379.8922    
     21420   661.45222     -920.33434     -2519.855       4367.2168    
     21430   577.69057     -917.97986      757.57109      4353.8194    
     21440   607.53301     -918.76468      3497.566       4340.729     
     21450   638.77431     -919.57743      5786.2084      4328.8087    
     21460   577.80171     -917.83142      8071.2902      4318.7775    
     21470   591.29033     -918.15346      10084.923      4311.3124    
     21480   654.57224     -919.87512      11426.662      4306.999     
     21490   608.40687     -918.59554      11773.522      4306.2185    
     21500   601.41047     -918.43983      10870.603      4309.051     
     21510   613.85737     -918.84427      9312.1935      4315.2284    
     21520   599.47572     -918.51148      7418.6496      4324.2792    
     21530   652.58033     -920.05839      4766.8916      4335.605     
     21540   663.89928     -920.45327      1911.0626      4348.3999    
     21550   638.89368     -919.84469     -1113.819       4361.765     
     21560   641.99107     -920.01433     -4224.3938      4374.7365    
     21570   598.37412     -918.87767     -6820.9592      4386.3292    
     21580   555.0336      -917.72517     -8916.5051      4395.6998    
     21590   594.42672     -918.85835     -10789.122      4402.158     
     21600   610.22873     -919.35037     -11622.525      4405.1303    
     21610   567.36507     -918.22994     -11178.777      4404.3739    
     21620   605.78456     -919.38092     -10110.763      4400.0416    
     21630   643.2231      -920.52448     -8356.7416      4392.5225    
     21640   622.29302     -920.06425     -6003.5437      4382.4277    
     21650   612.27075     -919.91125     -3566.414       4370.5366    
     21660   568.40724     -918.79608     -848.29026      4357.6689    
     21670   547.81541     -918.2828       2238.4475      4344.7122    
     21680   588.43869     -919.42653      5091.0878      4332.6243    
     21690   619.76263     -920.2945       7455.0403      4322.2755    
     21700   609.16426     -920.00387      9481.9376      4314.3733    
     21710   600.08859     -919.77283      10812.845      4309.4887    
     21720   597.14118     -919.73373      11189.552      4307.9772    
     21730   589.55245     -919.5887       10757.604      4309.9153    
     21740   602.83916     -920.04067      9566.8848      4315.1364    
     21750   643.08385     -921.26622      7567.2201      4323.2439    
     21760   607.95358     -920.41814      5264.494       4333.6178    
     21770   582.92651     -919.8522       2445.3918      4345.5191    
     21780   589.13867     -920.14099     -882.34909      4358.0513    
     21790   561.27229     -919.469       -3878.6752      4370.1813    
     21800   529.42886     -918.66623     -6373.9506      4380.9562    
     21810   566.38695     -919.77233     -8441.076       4389.5777    
     21820   569.25556     -919.95342     -9418.6886      4395.4215    
     21830   557.12176     -919.75113     -9624.0326      4398.1912    
     21840   580.84698     -920.5851      -9504.5605      4397.8491    
     21850   600.47065     -921.36206     -8885.9748      4394.4895    
     21860   569.78993     -920.77951     -7593.4507      4388.3742    
     21870   595.71374     -921.79483     -6102.2089      4379.9589    
     21880   559.13795     -921.08686     -4109.0887      4369.7853    
     21890   479.33942     -919.10857     -1655.3779      4358.5304    
     21900   555.54972     -921.40859      834.25395      4346.9849    
     21910   584.49819     -922.369        3775.5271      4335.9593    
     21920   517.7084      -920.62265      6421.8308      4326.3363    
     21930   553.7994      -921.69471      7916.555       4318.8747    
     21940   588.85788     -922.7333       8662.2494      4313.9929    
     21950   479.04649     -919.72772      9307.2426      4311.8809    
     21960   509.25818     -920.58423      9168.4266      4312.6546    
     21970   587.62325     -922.75281      8186.7886      4316.214     
     21980   515.07247     -920.71217      7056.9473      4322.2321    
     21990   520.32686     -920.80987      5334.4266      4330.3063    
     22000   596.98895     -922.83869      2992.9723      4339.8719    
     22010   561.41048     -921.71168      662.34165      4350.1983    
     22020   528.5947      -920.63871     -1881.9119      4360.533     
     22030   554.20034     -921.14242     -4234.3522      4370.0818    
     22040   516.42855     -919.84852     -5618.9591      4378.1346    
     22050   543.91029     -920.35012     -6836.332       4384.2475    
     22060   619.37644     -922.15397     -7945.704       4388.0658    
     22070   568.32699     -920.46848     -8049.4588      4389.3086    
     22080   534.63197     -919.32124     -7563.0765      4387.9871    
     22090   583.33946     -920.4766      -7008.2442      4384.3003    
     22100   560.05803     -919.64911     -5667.1269      4378.5104    
     22110   562.18784     -919.55179     -3744.0468      4371.0944    
     22120   615.59139     -920.88054     -1758.7886      4362.6904    
     22130   607.15905     -920.50283      519.22348      4353.9652    
     22140   579.34439     -919.6039       2482.7734      4345.6255    
     22150   627.0065      -920.81002      3726.3823      4338.2585    
     22160   598.72481     -919.91723      4988.8705      4332.2451    
     22170   571.66348     -919.07511      5963.1726      4327.926     
     22180   597.7953      -919.71258      6255.5016      4325.5438    
     22190   593.07341     -919.4998       6339.2497      4325.151     
     22200   553.81049     -918.33375      6275.248       4326.7269    
     22210   588.87905     -919.22909      5406.6233      4330.1829    
     22220   620.90047     -920.03044      4357.9169      4335.2362    
     22230   615.35003     -919.79668      3038.7398      4341.5218    
     22240   603.24889     -919.38885      1751.1947      4348.62      
     22250   611.72241     -919.55263      294.37056      4356.1072    
     22260   620.88229     -919.73284     -1371.277       4363.519     
     22270   629.24241     -919.89552     -3102.6965      4370.3357    
     22280   614.53194     -919.42671     -4558.7754      4376.0321    
     22290   610.86266     -919.27519     -5760.6419      4380.1696    
     22300   605.03858     -919.07459     -6532.5366      4382.4047    
     22310   573.42427     -918.16297     -6373.8899      4382.5512    
     22320   608.84473     -919.11355     -5658.1195      4380.695     
     22330   648.96479     -920.19855     -4645.8094      4377.1078    
     22340   630.7986      -919.6855      -3555.3632      4372.1471    
     22350   604.17933     -918.95484     -2407.1977      4366.1931    
     22360   581.79834     -918.3393      -846.06609      4359.6462    
     22370   591.47263     -918.60052      599.38987      4352.9942    
     22380   630.63646     -919.67281      1687.8755      4346.6843    
     22390   621.87662     -919.4225       2994.6068      4341.0636    
     22400   578.21265     -918.20834      4226.7356      4336.5085    
     22410   604.39224     -918.93424      5130.7346      4333.3648    
     22420   624.44693     -919.49461      5794.2009      4331.8824    
     22430   638.75162     -919.91797      5921.0244      4332.2221    
     22440   657.20344     -920.49585      5338.9926      4334.3752    
     22450   624.4085      -919.69263      4536.7884      4338.1471    
     22460   613.43713     -919.52632      3096.5367      4343.2449    
     22470   614.51468     -919.72175      1327.8649      4349.2095    
     22480   575.29822     -918.8083      -317.93777      4355.4882    
     22490   577.24157     -919.03772     -1872.3636      4361.558     
     22500   579.40476     -919.27619     -3028.5548      4366.9455    
     22510   559.10569     -918.88221     -3864.6182      4371.2931    
     22520   601.96049     -920.24339     -4569.5847      4374.3494    
     22530   618.48095     -920.89586     -4727.6875      4375.9256    
     22540   563.56515     -919.56542     -4310.2534      4375.9991    
     22550   583.14946     -920.29193     -4211.2184      4374.7009    
     22560   625.58802     -921.66582     -4271.409       4372.093     
     22570   564.71856     -920.16997     -3557.2152      4368.2109    
     22580   520.67392     -919.10216     -2484.279       4363.2887    
     22590   559.06038     -920.28944     -1395.0271      4357.6759    
     22600   557.25328     -920.33157      9.182855       4351.7361    
     22610   542.57214     -919.9817       1931.0848      4345.9232    
     22620   594.23384     -921.45081      3513.2848      4340.8067    
     22630   610.42378     -921.92519      4587.906       4336.8653    
     22640   623.62618     -922.32999      4926.0969      4334.4008    
     22650   584.9487      -921.30573      4796.8565      4333.5015    
     22660   532.23652     -919.88366      4228.2494      4334.1017    
     22670   530.24084     -919.84394      3464.5036      4336.0116    
     22680   546.9554      -920.29116      2661.3057      4338.9788    
     22690   543.95209     -920.15772      2096.2096      4342.7525    
     22700   554.30108     -920.36269      1448.6537      4347.1392    
     22710   576.32644     -920.85488      397.5335       4351.9222    
     22720   553.19968     -920.05857     -746.06855      4356.7796    
     22730   540.79775     -919.52504     -1733.5539      4361.3579    
     22740   593.73945     -920.75455     -2635.0416      4365.346     
     22750   630.13369     -921.47548     -3328.9576      4368.4678    
     22760   584.78973     -919.9273      -3596.543       4370.5191    
     22770   587.56547     -919.72764     -3697.6889      4371.4172    
     22780   617.72648     -920.28326     -3560.1793      4371.1479    
     22790   627.54878     -920.2935      -3292.3405      4369.7603    
     22800   595.86065     -919.19352     -2748.1128      4367.3578    
     22810   602.24765     -919.18986     -2117.7151      4364.1186    
     22820   600.37849     -918.98115     -1172.1395      4360.2574    
     22830   592.20758     -918.6231       114.08638      4356.082     
     22840   634.52956     -919.68817      1151.3306      4351.9839    
     22850   639.24842     -919.73753      1688.1259      4348.2811    
     22860   586.87548     -918.2327       2018.5524      4345.1426    
     22870   561.6785      -917.48828      2647.5765      4342.6806    
     22880   607.12382     -918.70153      3173.6599      4341.0718    
     22890   614.28805     -918.85521      3563.7712      4340.4739    
     22900   615.94446     -918.87007      3645.6101      4340.9954    
     22910   666.47902     -920.26493      3385.4115      4342.6516    
     22920   651.65689     -919.87574      3064.9252      4345.3655    
     22930   641.28305     -919.64208      2276.6965      4349.0184    
     22940   635.64577     -919.55935      1093.4067      4353.3634    
     22950   621.20806     -919.24308     -405.40181      4358.0252    
     22960   616.25198     -919.19482     -1692.3887      4362.5476    
     22970   609.07872     -919.08868     -2667.2814      4366.5229    
     22980   582.55412     -918.44134     -3362.8557      4369.6449    
     22990   577.83034     -918.38869     -4050.5575      4371.6857    
     23000   606.001       -919.24528     -4395.3562      4372.4427    
     23010   610.10566     -919.43862     -4030.7631      4371.8225    
     23020   608.56062     -919.48327     -3210.9014      4369.9423    
     23030   606.2952      -919.51466     -2471.1939      4367.0552    
     23040   602.98069     -919.51925     -1849.9462      4363.4039    
     23050   609.23074     -919.79584     -1056.668       4359.198     
     23060   594.54355     -919.48926      39.942188      4354.6976    
     23070   608.3971      -919.97908      907.82127      4350.2334    
     23080   588.16139     -919.52217      1779.5423      4346.0873    
     23090   570.54236     -919.13078      2715.6188      4342.5302    
     23100   588.59893     -919.72176      3542.9763      4339.8467    
     23110   615.44968     -920.56241      4110.2793      4338.2863    
     23120   619.02291     -920.77482      4290.2514      4338.0171    
     23130   594.28483     -920.21942      4053.2377      4339.0895    
     23140   582.98222     -920.04069      3336.5515      4341.4237    
     23150   617.54465     -921.1507       2087.7839      4344.7883    
     23160   579.94383     -920.26689      1033.3208      4348.8143    
     23170   546.56626     -919.4931      -87.040464      4353.1589    
     23180   538.95434     -919.41607     -1092.427       4357.4754    
     23190   541.92238     -919.61351     -1756.6407      4361.4513    
     23200   567.69798     -920.43118     -2470.4159      4364.864     
     23210   599.08181     -921.40989     -3177.9296      4367.4896    
     23220   574.57494     -920.84729     -3489.0801      4369.1162    
     23230   555.27535     -920.43357     -3565.4544      4369.6395    
     23240   559.60998     -920.67774     -3418.4572      4369.0387    
     23250   556.40621     -920.71338     -3050.9861      4367.3643    
     23260   569.34952     -921.19967     -2608.855       4364.7325    
     23270   585.37072     -921.7865      -1999.8256      4361.2887    
     23280   528.7926      -920.35608     -938.14392      4357.242     
     23290   526.57237     -920.41588     -102.39266      4352.9091    
     23300   578.5322      -921.97569      514.53058      4348.5545    
     23310   533.56434     -920.83436      1735.2062      4344.3993    
     23320   522.55361     -920.60949      2949.7664      4340.8067    
     23330   604.00937     -922.94343      3411.1383      4338.1338    
     23340   569.67196     -922.06435      3750.3745      4336.5421    
     23350   487.72703     -919.84342      3824.3526      4336.1272    
     23360   534.45299     -921.16331      3364.7219      4336.9027    
     23370   565.83804     -922.02467      2737.4087      4338.7332    
     23380   495.85954     -920.03926      2294.4546      4341.4347    
     23390   517.81588     -920.56839      1595.53        4344.8526    
     23400   555.79375     -921.47974      984.14164      4348.7808    
     23410   552.0026      -921.18525      411.72926      4353.0257    
     23420   595.54733     -922.16702     -628.61487      4357.3914    
     23430   605.70745     -922.19026     -1683.9074      4361.5633    
     23440   552.52365     -920.4596      -2355.2327      4365.2184    
     23450   552.38038     -920.20538     -3218.6703      4368.1219    
     23460   577.86191     -920.64529     -3915.3139      4370.0088    
     23470   550.52985     -919.62451     -3893.3715      4370.6736    
     23480   578.17671     -920.14797     -3682.7007      4370.1068    
     23490   608.47593     -920.75234     -3398.3734      4368.3741    
     23500   544.3559      -918.7676      -2648.6475      4365.5816    
     23510   556.42973     -918.92355     -1891.8777      4361.9539    
     23520   626.61032     -920.68613     -887.62302      4357.7427    
     23530   608.20159     -920.00593      610.94591      4353.2771    
     23540   585.36954     -919.2322       1786.3516      4349.0071    
     23550   627.82289     -920.28413      2273.3418      4345.2902    
     23560   616.43021     -919.8557       2914.2584      4342.3066    
     23570   592.69168     -919.1053       3437.8825      4340.2455    
     23580   632.26229     -920.12612      3486.9065      4339.2582    
     23590   584.93002     -918.74392      3601.7238      4339.3766    
     23600   558.04802     -917.93575      3460.1706      4340.6261    
     23610   622.49534     -919.65287      2798.9297      4342.9564    
     23620   641.25941     -920.10342      2151.6646      4346.1771    
     23630   602.87239     -918.98656      1630.0626      4350.0908    
     23640   614.08        -919.25551      614.90159      4354.5172    
     23650   645.68983     -920.0973      -724.68107      4359.1419    
     23660   601.57956     -918.84678     -1902.1907      4363.5537    
     23670   610.59502     -919.08079     -2908.373       4367.3761    
     23680   616.65072     -919.23585     -3453.3897      4370.2985    
     23690   596.13235     -918.65987     -3746.073       4372.1344    
     23700   618.44645     -919.27956     -3844.9518      4372.787     
     23710   644.04174     -920.00539     -3638.9124      4372.2263    
     23720   611.80091     -919.1466      -3074.6029      4370.5207    
     23730   604.3078      -918.98748     -2710.2808      4367.8337    
     23740   632.75178     -919.84276     -2435.2409      4364.2858    
     23750   571.12891     -918.20571     -1469.4842      4359.9914    
     23760   547.21433     -917.60267     -321.4855       4355.2397    
     23770   615.93474     -919.56032      824.3735       4350.3906    
     23780   635.20895     -920.1533       2259.7984      4345.817     
     23790   611.05459     -919.56128      3433.3682      4341.9553    
     23800   622.9369      -919.99449      3913.2894      4339.1574    
     23810   613.21491     -919.85779      4251.7863      4337.5919    
     23820   582.66222     -919.16094      4417.8215      4337.3629    
     23830   609.72199     -920.08469      4072.9426      4338.512     
     23840   633.66717     -920.95897      3389.4097      4340.9417    
     23850   601.71855     -920.31325      2499.1805      4344.4441    
     23860   572.7554      -919.75334      1346.6195      4348.7422    
     23870   564.31059     -919.75307      143.93639      4353.4816    
     23880   550.09674     -919.56595     -927.98942      4358.2899    
     23890   577.83882     -920.52391     -2138.1594      4362.8163    
     23900   562.94905     -920.28088     -3031.3223      4366.6899    
     23910   526.63281     -919.40576     -3551.4242      4369.6234    
     23920   574.4341      -920.83939     -3952.4174      4371.4383    
     23930   600.87241     -921.67221     -3989.1361      4372.0111    
     23940   570.87151     -920.92959     -3735.3844      4371.326     
     23950   577.22695     -921.18612     -3526.0901      4369.4511    
     23960   568.90115     -921.02331     -3088.2989      4366.46      
     23970   512.84313     -919.50712     -2041.2991      4362.5054    
     23980   548.81103     -920.51226     -977.83337      4357.9014    
     23990   594.09696     -921.74648      59.496556      4352.9866    
     24000   554.58481     -920.60691      1295.4862      4348.0978    
     24010   558.78905     -920.66342      2314.7801      4343.61      
     24020   567.41655     -920.81359      3373.7329      4339.8534    
     24030   576.90016     -920.96453      4189.2349      4337.1516    
     24040   604.40216     -921.59773      4345.4482      4335.7485    
     24050   574.99147     -920.63896      4246.7251      4335.7075    
     24060   532.58234     -919.30711      4003.1714      4337.0036    
     24070   589.96861     -920.7089       3292.8371      4339.5535    
     24080   580.78126     -920.21386      2419.7049      4343.1508    
     24090   535.1181      -918.69176      1556.6961      4347.5324    
     24100   592.30573     -919.98902      400.8307       4352.418     
     24110   618.6853      -920.38806     -605.79521      4357.4606    
     24120   567.3379      -918.65584     -1316.6888      4362.3483    
     24130   601.2894      -919.32574     -2193.7417      4366.8361    
     24140   644.05601     -920.26326     -3043.4798      4370.6486    
     24150   638.00183     -919.90826     -3643.4611      4373.5159    
     24160   622.34376     -919.35131     -4066.8605      4375.2396    
     24170   632.54476     -919.56058     -4392.5826      4375.6751    
     24180   596.98311     -918.52841     -4180.7601      4374.7295    
     24190   613.48077     -918.96211     -3875.7439      4372.4494    
     24200   630.33595     -919.4189      -3138.8182      4368.9431    
     24210   599.36875     -918.55984     -1782.5581      4364.4532    
     24220   601.39555     -918.61851     -593.4226       4359.3843    
     24230   628.52214     -919.37449      514.55775      4354.1205    
     24240   624.04553     -919.26079      1649.0682      4349.0146    
     24250   622.05993     -919.22684      2578.6738      4344.4206    
     24260   628.38784     -919.43785      3076.8529      4340.6219    
     24270   579.78989     -918.13026      3789.119       4337.7964    
     24280   556.98422     -917.52833      4304.5229      4336.1535    
     24290   610.46321     -919.03506      4463.5003      4335.8553    
     24300   641.76096     -919.93365      4435.8694      4336.9609    
     24310   637.06156     -919.8584       4215.2461      4339.4682    
     24320   642.15504     -920.08288      3541.2563      4343.3096    
     24330   637.19982     -920.05618      2498.682       4348.2848    
     24340   617.66758     -919.63947      1025.3753      4354.0714    
     24350   642.00806     -920.4583      -837.27475      4360.209     
     24360   624.99467     -920.1468      -2544.3305      4366.1242    
     24370   563.19381     -918.58983     -3854.0515      4371.2747    
     24380   527.10638     -917.71527     -4765.0482      4375.2365    
     24390   565.99378     -918.89942     -5436.9344      4377.7015    
     24400   597.82403     -919.88095     -5546.8601      4378.455     
     24410   606.48842     -920.22695     -5050.936       4377.4561    
     24420   596.74057     -920.06916     -4202.2243      4374.8514    
     24430   584.66641     -919.84742     -3378.5914      4370.8971    
     24440   578.4872      -919.78177     -2585.0441      4365.8541    
     24450   588.4252      -920.15589     -1437.9968      4359.9876    
     24460   578.71048     -919.97325      138.73005      4353.6645    
     24470   585.58644     -920.2376       1741.9783      4347.3731    
     24480   610.22953     -920.99183      3177.1628      4341.615     
     24490   594.37872     -920.6259       4449.4504      4336.842     
     24500   569.59083     -920.00961      5326.0588      4333.448     
     24510   600.36264     -920.9396       5491.3543      4331.6994    
     24520   594.59883     -920.86691      5277.834       4331.6638    
     24530   548.32614     -919.66945      4862.0038      4333.2869    
     24540   562.23965     -920.13552      3915.5947      4336.4363    
     24550   575.99547     -920.58696      2761.1034      4340.8371    
     24560   562.76648     -920.28007      1596.3896      4346.1398    
     24570   549.387       -919.95206      366.50981      4351.9826    
     24580   563.87003     -920.37685     -920.61629      4357.9819    
     24590   562.15622     -920.3281      -2172.9902      4363.7331    
     24600   560.1735      -920.24827     -3451.9843      4368.8299    
     24610   575.64487     -920.62686     -4328.4893      4372.8709    
     24620   597.69569     -921.16616     -4799.5396      4375.5656    
     24630   600.00046     -921.14274     -5028.2991      4376.7493    
     24640   578.33453     -920.44336     -4853.7868      4376.3451    
     24650   553.56661     -919.63852     -4416.6711      4374.3972    
     24660   573.84853     -920.05238     -3966.114       4371.0312    
     24670   590.54031     -920.32705     -3011.6145      4366.4025    
     24680   563.5736      -919.36267     -1402.8625      4360.8197    
     24690   595.51948     -920.00956     -76.612158      4354.7637    
     24700   620.61208     -920.43649      1272.3373      4348.666     
     24710   596.97422     -919.516        3018.1691      4342.9655    
     24720   629.29099     -920.16281      4245.3384      4338.1833    
     24730   641.34334     -920.26314      4967.3495      4334.7099    
     24740   569.73814     -918.08104      5335.0516      4332.7782    
     24750   561.88534     -917.69392      5191.5092      4332.5049    
     24760   633.18627     -919.49904      4666.8123      4333.8549    
     24770   612.69067     -918.76726      4424.6593      4336.7       
     24780   608.73822     -918.52672      3631.8779      4340.9468    
     24790   645.34746     -919.42664      2406.905       4346.3645    
     24800   621.51083     -918.66743      1260.4864      4352.5932    
     24810   622.64155     -918.62058     -142.63629      4359.268     
     24820   687.34604     -920.35488     -1991.8575      4365.9395    
     24830   645.26051     -919.15597     -3298.2393      4372.048     
     24840   602.38695     -917.96037     -4232.4241      4377.162     
     24850   667.80985     -919.79179     -5380.1342      4380.9506    
     24860   629.71177     -918.77774     -5905.122       4383.0615    
     24870   582.7305      -917.53374     -5967.9116      4383.3059    
     24880   653.18465     -919.56892     -5992.3149      4381.6369    
     24890   624.09863     -918.87094     -5285.9976      4378.0612    
     24900   527.01613     -916.27823     -3994.9752      4372.7929    
     24910   609.88323     -918.66912     -2708.3888      4366.2219    
     24920   669.77663     -920.43147     -807.05205      4358.7797    
     24930   626.6298      -919.35644      1535.5949      4351.0662    
     24940   629.93229     -919.58693      3158.7066      4343.7879    
     24950   632.49193     -919.82592      4259.3021      4337.4632    
     24960   560.33464     -917.9898       5315.935       4332.4561    
     24970   600.0763      -919.25974      5775.928       4329.0793    
     24980   639.67861     -920.55461      6213.7424      4327.5033    
     24990   596.4553      -919.57152      6477.3679      4327.867     
     25000   592.7702      -919.68927      6041.0905      4330.2531    
     25010   621.69807     -920.72662      4805.2839      4334.5391    
     25020   578.79961     -919.76304      3450.9624      4340.377     
     25030   580.24152     -920.00404      1773.8887      4347.3506    
     25040   586.23195     -920.34706     -248.7006       4354.9407    
     25050   557.52173     -919.68692     -2113.5851      4362.5276    
     25060   561.84993     -919.90445     -3803.0434      4369.5133    
     25070   580.98192     -920.50316     -5023.0092      4375.3583    
     25080   575.90267     -920.41081     -5815.9012      4379.6548    
     25090   569.18361     -920.25651     -6293.1603      4382.1301    
     25100   589.72488     -920.85144     -6540.4872      4382.6095    
     25110   573.58552     -920.42174     -6080.8299      4381.0154    
     25120   562.69979     -920.13061     -5100.4367      4377.4762    
     25130   575.10756     -920.47156     -3859.2717      4372.2927    
     25140   600.93399     -921.17655     -2739.0765      4365.8435    
     25150   569.06657     -920.27353     -1348.0573      4358.4982    
     25160   516.59186     -918.77976      392.74637      4350.6992    
     25170   552.3176      -919.70318      2252.7468      4342.9901    
     25180   623.1305      -921.5773       3994.7993      4335.9507    
     25190   584.62239     -920.41808      5695.9278      4330.1361    
     25200   575.09528     -920.07585      6730.3017      4326.0618    
     25210   613.6233      -921.07434      7140.0443      4324.06      
     25220   580.5993      -920.09923      7341.462       4324.2834    
     25230   577.44472     -919.96623      6729.0599      4326.7932    
     25240   618.56138     -921.06728      5230.8772      4331.4159    
     25250   568.23318     -919.63054      3789.52        4337.7363    
     25260   556.66921     -919.26562      2108.2348      4345.3097    
     25270   584.1469      -919.95976      91.270566      4353.6176    
     25280   587.48654     -919.96446     -1804.6128      4362.0427    
     25290   583.73739     -919.7605      -3512.518       4369.9817    
     25300   613.57444     -920.48406     -5046.9967      4376.8763    
     25310   580.01661     -919.44821     -6058.6331      4382.2329    
     25320   562.23323     -918.85551     -6871.9296      4385.6943    
     25330   608.51747     -920.03782     -7311.8217      4386.9848    
     25340   618.30067     -920.21402     -7115.926       4385.9517    
     25350   593.98633     -919.46404     -6334.2191      4382.6405    
     25360   588.79193     -919.25415     -5135.919       4377.2852    
     25370   606.95184     -919.68969     -3604.809       4370.262     
     25380   601.49086     -919.46424     -1658.474       4362.0589    
     25390   603.17539     -919.43018      401.40137      4353.2871    
     25400   635.59236     -920.24303      2361.6584      4344.5943    
     25410   632.38956     -920.07231      4385.8624      4336.6045    
     25420   584.30932     -918.66398      6237.5365      4329.9514    
     25430   607.18044     -919.23067      6948.0316      4325.185     
     25440   622.33795     -919.58958      7033.9712      4322.5519    
     25450   584.12189     -918.47976      7127.9322      4322.1109    
     25460   602.968       -918.96301      6670.8133      4323.8855    
     25470   602.28122     -918.90528      6116.6442      4327.7729    
     25480   547.02435     -917.32736      5275.5027      4333.6174    
     25490   616.40603     -919.18859      3685.4559      4341.1667    
     25500   710.5208      -921.71189      1706.6148      4349.9536    
     25510   649.82238     -919.95477     -141.93259      4359.3868    
     25520   623.24861     -919.16697     -2647.157       4368.8577    
     25530   623.98186     -919.13262     -5107.1529      4377.5831    
     25540   557.00441     -917.2072      -6677.4761      4384.7845    
     25550   611.128       -918.6311      -7890.8749      4389.9138    
     25560   679.49493     -920.44212     -8409.5823      4392.5636    
     25570   600.94856     -918.19929     -7860.6555      4392.5552    
     25580   593.62862     -917.95287     -7255.8303      4390.0113    
     25590   674.72725     -920.16361     -6580.8957      4385.1121    
     25600   616.8523      -918.53257     -4972.4006      4378.0925    
     25610   586.07329     -917.66395     -3053.3655      4369.444     
     25620   665.68352     -919.85512     -1204.6871      4359.7669    
     25630   614.7466      -918.42152      1371.6926      4349.6775    
     25640   590.01459     -917.71305      3899.2198      4339.9681    
     25650   667.84141     -919.85249      5702.2796      4331.4161    
     25660   630.16516     -918.80592      7307.2328      4324.6068    
     25670   588.37688     -917.66891      8288.9396      4320.0308    
     25680   621.88926     -918.64124      8644.1517      4318.0019    
     25690   617.88274     -918.59698      8771.4809      4318.6595    
     25700   626.78076     -918.93885      8156.0711      4322.0525    
     25710   680.196       -920.56292      6573.0168      4328.01      
     25720   633.95991     -919.45911      4973.279       4336.1047    
     25730   635.49455     -919.7047       2699.271       4345.839     
     25740   636.14088     -919.94095     -140.59333      4356.5225    
     25750   574.39128     -918.42562     -2789.084       4367.286     
     25760   593.2911      -919.12135     -5230.03        4377.2779    
     25770   612.54908     -919.82487     -7179.4612      4385.7056    
     25780   539.19931     -917.93544     -8204.7532      4391.9284    
     25790   566.89748     -918.82829     -9081.0731      4395.5604    
     25800   632.43653     -920.78697     -9582.9876      4396.2968    
     25810   573.88315     -919.31262     -8812.2731      4393.9811    
     25820   573.74818     -919.45427     -7675.0143      4388.8128    
     25830   624.06342     -921.00324     -6251.0149      4381.1476    
     25840   556.85207     -919.27681     -3914.4263      4371.4595    
     25850   552.00505     -919.24314     -1188.78        4360.4817    
     25860   621.20261     -921.23805      1413.3813      4349.0689    
     25870   598.93345     -920.67379      4194.8144      4338.0608    
     25880   603.48287     -920.84445      6477.3729      4328.3119    
     25890   614.22257     -921.19071      8090.8544      4320.5338    
     25900   556.98423     -919.65194      9180.7962      4315.2328    
     25910   557.18593     -919.70171      9713.4697      4312.754     
     25920   623.45323     -921.59829      9371.4431      4313.2658    
     25930   556.48799     -919.80625      8636.5159      4316.7025    
     25940   523.55659     -918.95101      7232.0774      4322.8551    
     25950   579.40999     -920.53638      4969.7764      4331.3109    
     25960   568.23873     -920.2297       2663.2824      4341.419     
     25970   552.8519      -919.77482      172.94994      4352.4671    
     25980   583.91881     -920.56852     -2499.8407      4363.6759    
     25990   567.49464     -920.00182     -4589.6615      4374.214     
     26000   562.98706     -919.73631     -6172.961       4383.3909    
     26010   608.84882     -920.83291     -7573.7822      4390.6666    
     26020   639.32598     -921.47989     -8736.9379      4395.5649    
     26030   622.11635     -920.80978     -9348.1607      4397.6935    
     26040   595.15122     -919.88498     -9368.6363      4396.8326    
     26050   562.17737     -918.79485     -8752.277       4392.9576    
     26060   541.02476     -918.01537     -7312.9213      4386.262     
     26070   584.51899     -918.98549     -5220.3263      4377.1994    
     26080   626.26627     -919.85082     -2474.2309      4366.4464    
     26090   626.84289     -919.55643      502.37931      4354.8715    
     26100   613.61625     -918.89245      3250.3769      4343.4133    
     26110   647.45864     -919.55434      5407.6405      4332.9294    
     26120   659.72293     -919.65214      7393.3428      4324.1093    
     26130   620.57203     -918.38035      9089.2592      4317.5662    
     26140   601.45425     -917.71743      9868.8331      4313.8083    
     26150   596.1941      -917.47377      9883.9321      4313.0911    
     26160   605.99362     -917.6781       9308.9863      4315.4389    
     26170   637.42671     -918.51149      8291.3361      4320.7015    
     26180   660.99591     -919.16055      6881.9618      4328.5975    
     26190   666.29948     -919.34005      4793.9747      4338.7066    
     26200   667.02052     -919.41927      2181.9329      4350.4068    
     26210   673.61534     -919.68171     -817.10458      4362.894     
     26220   637.34628     -918.7588      -3889.2122      4375.2268    
     26230   612.3687      -918.14059     -6725.3334      4386.4171    
     26240   601.8404      -917.91159     -8910.4947      4395.5423    
     26250   609.22853     -918.18193     -10521.518      4401.8616    
     26260   602.89547     -918.08531     -11099.364      4404.8396    
     26270   607.05463     -918.29808     -10631.354      4404.2643    
     26280   651.64096     -919.66316     -9584.0076      4400.2593    
     26290   649.53041     -919.76946     -8047.2147      4393.1585    
     26300   583.45469     -918.1074      -6075.6789      4383.4601    
     26310   583.23507     -918.25006     -3856.3219      4371.8021    
     26320   633.65502     -919.7797      -1104.6069      4358.9184    
     26330   620.90449     -919.53886      2087.5045      4345.6916    
     26340   602.0671      -919.10357      5170.067       4333.1224    
     26350   621.06179     -919.70557      7597.2605      4322.1588    
     26360   587.33271     -918.83562      9687.3032      4313.5606    
     26370   583.87838     -918.79949      11161.632      4307.9554    
     26380   652.67732     -920.79284      11680.62       4305.7821    
     26390   632.18547     -920.34935      11487.707      4307.2134    
     26400   583.26345     -919.13778      10284.625      4312.1921    
     26410   610.60119     -920.04961      8092.3413      4320.3699    
     26420   596.89641     -919.8136       5620.4052      4331.1138    
     26430   580.16166     -919.46623      2739.0215      4343.6682    
     26440   616.01824     -920.5489      -660.29811      4357.1376    
     26450   576.2445      -919.49533     -3856.8169      4370.4659    
     26460   538.42327     -918.45235     -6614.8708      4382.6274    
     26470   570.81232     -919.32302     -8924.6054      4392.7137    
     26480   601.23592     -920.12768     -10323.386      4399.9756    
     26490   597.65686     -920.00163     -10984.317      4403.9347    
     26500   606.90842     -920.25688     -11030.935      4404.3627    
     26510   599.54587     -920.0775      -10396.35       4401.2443    
     26520   556.63463     -918.92085     -8841.7129      4394.8044    
     26530   599.60234     -920.14622     -7085.4592      4385.538     
     26540   625.50931     -920.89239     -4731.9571      4374.0491    
     26550   569.32724     -919.34762     -1689.2112      4361.1178    
     26560   562.24313     -919.13327      1349.6365      4347.7122    
     26570   613.57412     -920.50723      4129.0131      4334.7954    
     26580   587.24864     -919.70439      7072.3592      4323.2519    
     26590   581.60675     -919.47009      9367.382       4313.9565    
     26600   616.51462     -920.36732      10605.035      4307.5906    
     26610   594.57535     -919.71053      11209.574      4304.5209    
     26620   556.21461     -918.61957      11256.089      4304.9169    
     26630   596.91475     -919.73988      10391.704      4308.7702    
     26640   593.22953     -919.63739      8999.6955      4315.8265    
     26650   598.99237     -919.80688      6833.7761      4325.6529    
     26660   643.52236     -921.05433      3981.5926      4337.585     
     26670   600.29129     -919.86085      1091.2296      4350.7556    
     26680   552.43087     -918.51552     -2190.8715      4364.2357    
     26690   591.62459     -919.55002     -5293.8035      4376.995     
     26700   609.37777     -919.9684      -7608.7785      4388.047     
     26710   582.96642     -919.16195     -9257.5621      4396.6334    
     26720   611.18009     -919.88759     -10659.372      4402.2049    
     26730   595.8492      -919.4232      -11198.781      4404.3371    
     26740   597.45537     -919.45895     -10800.693      4402.8735    
     26750   600.10449     -919.54535     -9843.2379      4397.9627    
     26760   572.47018     -918.80227     -8219.0225      4389.957     
     26770   580.37017     -919.03958     -5898.339       4379.4232    
     26780   614.92284     -919.99865     -2938.4641      4367.1447    
     26790   614.14915     -919.95677      576.36088      4354.1       
     26800   622.78271     -920.16138      3664.6738      4341.3888    
     26810   638.87402     -920.57111      6114.1166      4329.9741    
     26820   601.7049      -919.51044      8062.926       4320.5993    
     26830   575.11951     -918.74833      9501.698       4313.8347    
     26840   591.94239     -919.19869      9993.9685      4310.0655    
     26850   568.40414     -918.53455      10150.924      4309.422     
     26860   593.50045     -919.23118      9535.8845      4311.8973    
     26870   623.79354     -920.08417      8475.1182      4317.2864    
     26880   576.98631     -918.80723      7126.6176      4325.2438    
     26890   605.15972     -919.60954      4891.493       4335.3189    
     26900   673.41646     -921.52029      2095.6924      4346.8109    
     26910   609.38584     -919.76283     -540.11522      4358.857     
     26920   573.57401     -918.77901     -3437.9198      4370.6003    
     26930   596.88439     -919.41248     -6099.8498      4381.1294    
     26940   588.40956     -919.15094     -7922.6526      4389.615     
     26950   604.35996     -919.57025     -9206.7206      4395.4771    
     26960   643.86783     -920.66824     -10020.854      4398.3254    
     26970   574.80099     -918.78128     -9745.1253      4397.9598    
     26980   565.07605     -918.55688     -8967.2899      4394.4986    
     26990   617.87084     -920.07713     -7902.0948      4388.2391    
     27000   561.84116     -918.57592     -5768.6864      4379.609     
     27010   566.53386     -918.74439     -3296.5563      4369.3191    
     27020   656.55596     -921.26235     -863.40023      4358.1866    
     27030   618.03735     -920.21234      1803.7422      4347.0146    
     27040   539.84947     -918.05229      4331.4714      4336.6339    
     27050   625.75575     -920.44077      6046.1785      4327.7892    
     27060   620.57173     -920.30794      7553.5043      4320.9965    
     27070   555.75144     -918.53453      8710.7325      4316.6685    
     27080   601.12359     -919.83288      9072.1474      4315.0871    
     27090   605.70569     -920.01636      9249.0636      4316.3337    
     27100   580.00296     -919.37406      8518.6901      4320.3888    
     27110   653.96872     -921.52153      6562.2388      4326.9734    
     27120   626.81746     -920.88441      4472.2586      4335.4821    
     27130   555.85578     -919.02862      2195.3738      4345.2343    
     27140   583.44177     -919.88625     -502.29241      4355.494     
     27150   577.14643     -919.77897     -2867.2775      4365.4257    
     27160   539.92844     -918.78426     -4685.3333      4374.2895    
     27170   588.43047     -920.15006     -6232.4913      4381.5132    
     27180   601.16769     -920.51845     -7232.9943      4386.6371    
     27190   561.76405     -919.44107     -7624.0468      4389.3815    
     27200   591.35393     -920.2826      -7878.3378      4389.6504    
     27210   587.95802     -920.21091     -7465.9405      4387.433     
     27220   564.74028     -919.58758     -6499.8023      4382.9131    
     27230   605.70702     -920.74231     -5306.8589      4376.4444    
     27240   589.5294      -920.30158     -3509.0125      4368.4722    
     27250   550.27621     -919.20406     -1362.4358      4359.5966    
     27260   575.38924     -919.86256      738.26691      4350.508     
     27270   612.44179     -920.82263      2823.7809      4341.874     
     27280   599.13575     -920.37216      4798.1631      4334.3266    
     27290   588.08238     -919.97968      6453.0213      4328.4455    
     27300   618.46438     -920.73592      7185.1759      4324.6763    
     27310   619.7142      -920.69338      7213.1566      4323.1979    
     27320   571.43493     -919.28945      6859.2267      4323.9756    
     27330   564.58647     -919.03476      6125.6663      4326.8495    
     27340   575.86717     -919.26419      4999.3713      4331.5525    
     27350   574.29534     -919.11391      3527.5965      4337.7031    
     27360   590.15518     -919.42388      1898.247       4344.8256    
     27370   610.24299     -919.82661      309.89795      4352.4029    
     27380   593.65651     -919.19711     -1166.4566      4359.9333    
     27390   617.09249     -919.67057     -2760.8006      4366.9434    
     27400   619.67368     -919.55673     -3938.7941      4372.9573    
     27410   603.00872     -918.91778     -4667.8462      4377.6211    
     27420   640.30405     -919.78477     -5454.3732      4380.7128    
     27430   659.49743     -920.16544     -5848.5083      4382.0285    
     27440   609.24358     -918.65289     -5476.0259      4381.4902    
     27450   607.86165     -918.52112     -5020.56        4379.2338    
     27460   630.99051     -919.07567     -4450.2809      4375.4446    
     27470   626.20057     -918.86606     -3256.2233      4370.3575    
     27480   639.14264     -919.16312     -1839.4234      4364.3661    
     27490   624.33905     -918.70165     -300.50648      4357.9392    
     27500   585.56482     -917.57801      1090.9406      4351.5617    
     27510   626.09274     -918.65397      2186.5604      4345.6616    
     27520   631.04301     -918.742        3428.5333      4340.5825    
     27530   609.28022     -918.09974      4603.9334      4336.6833    
     27540   643.13169     -919.01686      5109.5797      4334.2824    
     27550   630.11886     -918.65321      5189.5648      4333.5116    
     27560   610.54858     -918.13159      4981.2155      4334.3643    
     27570   636.69217     -918.89974      4533.6036      4336.7501    
     27580   660.74748     -919.64387      3739.3175      4340.4988    
     27590   649.68734     -919.46294      2915.4792      4345.3551    
     27600   654.82919     -919.78631      1580.828       4351.0294    
     27610   658.61804     -920.14581     -151.35229      4357.0956    
     27620   566.27761     -917.86722     -1564.6962      4363.0272    
     27630   572.11347     -918.3086      -3057.0308      4368.3661    
     27640   624.7972      -920.08112     -4377.7018      4372.661     
     27650   574.24291     -918.99047     -5154.097       4375.5177    
     27660   545.17506     -918.44956     -5320.0446      4376.7161    
     27670   608.93461     -920.46628     -5240.6581      4376.2169    
     27680   600.21965     -920.46113     -4447.745       4374.0945    
     27690   565.23793     -919.68666     -3549.4961      4370.609     
     27700   595.93198     -920.70744     -2768.5094      4366.0634    
     27710   573.18619     -920.21412     -1511.1618      4360.745     
     27720   568.93688     -920.19965     -162.58937      4355.0514    
     27730   601.77791     -921.19186      1079.1474      4349.4089    
     27740   578.60509     -920.61298      2199.0966      4344.2026    
     27750   545.4991      -919.73202      3155.8688      4339.7732    
     27760   594.54149     -921.11486      3705.5179      4336.3932    
     27770   567.35709     -920.36893      4278.466       4334.2295    
     27780   513.11261     -918.85147      4605.7903      4333.4286    
     27790   598.72314     -921.19649      4612.8185      4334.0687    
     27800   635.75261     -922.18442      4449.2727      4336.137     
     27810   574.50329     -920.45571      3944.101       4339.5621    
     27820   601.64895     -921.185        2616.8273      4344.1563    
     27830   590.40975     -920.83875      1058.6376      4349.5109    
     27840   509.10109     -918.53076     -414.84098      4355.1406    
     27850   532.49961     -919.09723     -2110.6685      4360.5663    
     27860   559.66415     -919.72032     -3207.5359      4365.2811    
     27870   539.071       -918.98684     -3475.1537      4368.9537    
     27880   609.50249     -920.75642     -3628.4063      4371.4872    
     27890   661.79298     -922.00156     -3706.4272      4372.8476    
     27900   605.44035     -920.25802     -3610.6657      4373.0279    
     27910   605.29254     -920.10376     -3569.0173      4372.0642    
     27920   611.95701     -920.1428      -3370.3863      4369.9922    
     27930   566.74602     -918.75064     -2830.8494      4366.8941    
     27940   581.76207     -919.03141     -2110.3713      4362.9493    
     27950   589.75559     -919.10249     -992.52281      4358.4047    
     27960   601.96374     -919.28769      400.12862      4353.6175    
     27970   643.89869     -920.30121      1657.1581      4349.0172    
     27980   626.64017     -919.69102      2761.9538      4344.9956    
     27990   611.05775     -919.15591      3429.3214      4341.8803    
     28000   626.08203     -919.48964      3547.4989      4339.865     
     28010   608.47842     -918.93603      3489.8926      4338.9819    
     28020   577.49792     -918.0241       3406.2228      4339.2048    
     28030   594.06209     -918.43452      3149.9221      4340.491     
     28040   608.22326     -918.77797      2799.0542      4342.7541    
     28050   639.92231     -919.62139      2216.5805      4345.8727    
     28060   650.06869     -919.8901       1521.7262      4349.6639    
     28070   604.66824     -918.63812      838.60786      4353.9088    
     28080   608.8622      -918.76653     -102.24127      4358.38      
     28090   670.31581     -920.49653     -1273.6427      4362.7814    
     28100   630.28293     -919.42565     -2099.1149      4366.7617    
     28110   620.02529     -919.19482     -2875.9633      4370.0503    
     28120   626.81598     -919.43861     -3809.951       4372.4002    
     28130   615.16822     -919.17748     -4769.6259      4373.524     
     28140   548.34102     -917.37249     -4717.1645      4373.1599    
     28150   567.02109     -917.92024     -4143.9421      4371.3164    
     28160   625.31752     -919.55558     -3093.242       4368.1932    
     28170   628.53923     -919.66618     -1651.616       4364.1333    
     28180   633.88189     -919.8475      -372.87386      4359.5886    
     28190   647.31119     -920.26934      620.26436      4354.9656    
     28200   612.62646     -919.36602      1450.9089      4350.5815    
     28210   596.48695     -918.97796      1979.7384      4346.6895    
     28220   594.24081     -918.96902      2474.3696      4343.4572    
     28230   581.18173     -918.6499       3162.4436      4341.0376    
     28240   597.83567     -919.1477       3701.0515      4339.6299    
     28250   630.92919     -920.1051       3888.1495      4339.3888    
     28260   634.23603     -920.25277      3714.6984      4340.3642    
     28270   612.38828     -919.71793      3116.3568      4342.493     
     28280   612.02544     -919.78794      2196.2396      4345.5834    
     28290   595.80152     -919.42001      1227.203       4349.3508    
     28300   566.94756     -918.68896      195.38129      4353.4883    
     28310   595.95593     -919.55275     -870.74632      4357.6683    
     28320   603.38733     -919.81118     -1609.8871      4361.5657    
     28330   595.03417     -919.63067     -2194.0506      4364.9421    
     28340   615.88463     -920.26452     -2765.0297      4367.6102    
     28350   621.91727     -920.49962     -3286.6792      4369.3921    
     28360   576.00461     -919.29992     -3553.6582      4370.134     
     28370   566.82233     -919.11365     -3553.1254      4369.7555    
     28380   606.01236     -920.26775     -3307.1854      4368.2624    
     28390   595.18158     -920.03837     -2724.7461      4365.7431    
     28400   562.74185     -919.20612     -2001.995       4362.384     
     28410   593.98349     -920.13829     -1327.3056      4358.4144    
     28420   593.16753     -920.1803      -306.34721      4354.0663    
     28430   551.24623     -919.07559      898.41875      4349.6579    
     28440   574.60282     -919.77078      2121.8865      4345.5668    
     28450   614.89917     -920.93786      3001.9177      4342.1623    
     28460   577.9855      -919.9677       3685.5622      4339.7226    
     28470   595.88221     -920.53306      3859.2533      4338.4415    
     28480   600.02441     -920.7317       3772.9455      4338.3765    
     28490   580.64339     -920.29328      3396.9105      4339.4926    
     28500   593.5784      -920.76628      2687.7359      4341.6667    
     28510   597.93784     -921.01999      1801.8888      4344.6756    
     28520   554.1252      -919.94031      1068.4662      4348.2515    
     28530   545.12751     -919.81752      267.22257      4352.1544    
     28540   544.72659     -919.9136      -593.93676      4356.1327    
     28550   558.00625     -920.37285     -1603.2323      4359.9101    
     28560   551.88654     -920.27314     -2433.7153      4363.1789    
     28570   573.53849     -920.93019     -2984.9192      4365.6772    
     28580   584.00881     -921.26761     -3213.5448      4367.2348    
     28590   572.18969     -920.98103     -3318.3545      4367.7749    
     28600   541.71942     -920.16211     -3129.241       4367.272     
     28610   556.18581     -920.56867     -2768.1109      4365.7864    
     28620   589.3285      -921.47344     -2347.7376      4363.4334    
     28630   569.7835      -920.89952     -1617.7055      4360.3617    
     28640   563.78635     -920.68729     -981.6771       4356.7901    
     28650   552.37058     -920.29892     -144.81337      4352.9343    
     28660   548.8333      -920.0985       929.74732      4349.0614    
     28670   579.26523     -920.80586      1899.6749      4345.4991    
     28680   607.05548     -921.41072      2680.9693      4342.5475    
     28690   555.39917     -919.79854      3338.0744      4340.4539    
     28700   565.46856     -919.89135      3404.7836      4339.4037    
     28710   603.71265     -920.73716      3220.9763      4339.4249    
     28720   575.52272     -919.73044      3117.4941      4340.4666    
     28730   575.19805     -919.50428      2751.3366      4342.4831    
     28740   620.70282     -920.54081      1988.3134      4345.3545    
     28750   591.95113     -919.52449      1377.2528      4348.8587    
     28760   567.48038     -918.6512       619.85552      4352.7947    
     28770   598.09303     -919.30938     -531.81927      4356.915     
     28780   598.80462     -919.13923     -1530.5653      4360.8712    
     28790   601.55122     -919.04416     -2226.9318      4364.3516    
     28800   641.00014     -919.98546     -2611.8918      4367.1336    
     28810   624.11666     -919.38976     -2498.9773      4369.103     
     28820   633.72037     -919.56265     -2565.4095      4370.2742    
     28830   668.31375     -920.45933     -2897.57        4370.6243    
     28840   616.11718     -918.98085     -3014.8235      4370.064     
     28850   577.64667     -917.89931     -2912.2553      4368.5573    
     28860   625.9185      -919.22805     -2650.7445      4366.1357    
     28870   624.04336     -919.17222     -1954.854       4362.8958    
     28880   573.83446     -917.78007     -950.20072      4359.0575    
     28890   609.14453     -918.75727      247.69215      4354.9389    
     28900   653.94325     -920.00094      1270.0564      4350.908     
     28910   620.85842     -919.10181      1992.959       4347.2869    
     28920   587.49198     -918.20613      2356.0054      4344.2977    
     28930   594.37533     -918.42496      2656.0827      4342.0599    
     28940   622.32123     -919.23121      3095.8611      4340.6694    
     28950   618.94574     -919.17819      3654.9136      4340.2652    
     28960   635.23256     -919.69089      3816.542       4341.0052    
     28970   648.58272     -920.15144      3442.4695      4342.936     
     28980   623.86326     -919.58485      2769.7513      4345.9493    
     28990   618.62089     -919.58159      1715.0735      4349.8317    
     29000   618.20775     -919.73316      410.36345      4354.2559    
     29010   602.21325     -919.46789     -1045.1085      4358.8135    
     29020   588.22231     -919.26813     -2275.3642      4363.0531    
     29030   584.21859     -919.34952     -2841.4412      4366.5971    
     29040   599.37917     -919.97821     -3285.2679      4369.2446    
     29050   576.17791     -919.54977     -3637.5604      4370.8545    
     29060   555.55987     -919.18682     -3938.7956      4371.3107    
     29070   554.52949     -919.35384     -3923.6131      4370.5245    
     29080   574.3991      -920.09113     -3355.9139      4368.5093    
     29090   597.29547     -920.9127      -2451.2468      4365.4417    
     29100   595.60545     -921.05316     -1515.7624      4361.6045    
     29110   566.19024     -920.41434     -623.06858      4357.294     
     29120   556.64198     -920.30054      349.58615      4352.7992    
     29130   586.98653     -921.28039      1282.275       4348.4235    
     29140   564.6767      -920.77971      2223.8158      4344.464     
     29150   571.31955     -921.06658      2821.3623      4341.2018    
     29160   569.29654     -921.09681      3384.2507      4338.8341    
     29170   558.65299     -920.87121      3852.2933      4337.5331    
     29180   562.80102     -921.03862      3974.1584      4337.4392    
     29190   582.28842     -921.61984      3465.943       4338.5805    
     29200   559.00597     -921.00188      2681.961       4340.8115    
     29210   521.55594     -919.96717      1876.5588      4343.8946    
     29220   533.80358     -920.27851      953.0571       4347.5742    
     29230   533.95607     -920.2079       102.05762      4351.5688    
     29240   549.15384     -920.50557     -583.63294      4355.6113    
     29250   571.80499     -920.9445      -1152.701       4359.4852    
     29260   595.67567     -921.33849     -1878.7752      4362.9993    
     29270   582.44458     -920.61567     -2423.5377      4365.9342    
     29280   597.53954     -920.59661     -2872.8253      4368.1099    
     29290   612.57243     -920.50168     -3247.0104      4369.3812    
     29300   573.73572     -918.92788     -3322.5259      4369.6328    
     29310   581.53863     -918.7289      -3011.1284      4368.8405    
     29320   645.60153     -920.16187     -2510.5277      4367.0985    
     29330   648.90863     -920.00455     -1863.6174      4364.5659    
     29340   602.57892     -918.56448     -1094.3934      4361.4482    
     29350   582.9513      -917.91171     -438.54571      4357.983     
     29360   628.32786     -919.08123      128.49361      4354.3783    
     29370   632.77335     -919.13127      982.23159      4350.8264    
     29380   615.99387     -918.61523      1855.3084      4347.5862    
     29390   631.29184     -919.00664      2556.3524      4344.9298    
     29400   622.43353     -918.74255      2970.4904      4343.0736    
     29410   620.68067     -918.69093      3171.7473      4342.1529    
     29420   646.5326      -919.42625      3001.3777      4342.2245    
     29430   600.39824     -918.17965      2754.9326      4343.248     
     29440   581.72067     -917.69833      2237.2115      4345.141     
     29450   642.52839     -919.42635      1623.7377      4347.7495    
     29460   644.80135     -919.54929      1261.6608      4350.894     
     29470   607.22491     -918.58404      815.56832      4354.4531    
     29480   648.99618     -919.83921     -135.57789      4358.2744    
     29490   663.18387     -920.3612      -1233.0619      4362.0691    
     29500   598.6256      -918.7172      -1931.1611      4365.5045    
     29510   601.08403     -918.93494     -2624.4474      4368.3424    
     29520   636.50283     -920.08291     -3432.5744      4370.3555    
     29530   601.26057     -919.28117     -3886.706       4371.2961    
     29540   576.31116     -918.7608      -3910.0773      4371.015     
     29550   583.22285     -919.11372     -3515.8749      4369.5026    
     29560   591.8635      -919.50899     -3100.3318      4366.8689    
     29570   572.05298     -919.10382     -2455.5513      4363.2502    
     29580   550.33882     -918.62101     -1112.4761      4358.8673    
     29590   578.77991     -919.5047       332.39215      4354.1262    
     29600   655.05192     -921.71507      1505.3576      4349.4773    
     29610   659.18564     -921.95495      2382.6467      4345.289     
     29620   569.55265     -919.60036      3083.059       4341.8443    
     29630   562.86296     -919.53226      3307.0715      4339.3523    
     29640   591.14083     -920.42502      3406.7358      4337.8954    
     29650   569.92551     -919.93433      3503.4385      4337.5109    
     29660   558.81792     -919.70975      3419.8246      4338.2294    
     29670   577.48558     -920.29714      3018.6948      4340.0225    
     29680   594.4377      -920.82843      2655.6818      4342.7838    
     29690   598.20714     -920.99237      2037.6831      4346.3982    
     29700   582.03968     -920.60047      872.44884      4350.6661    
     29710   554.63473     -919.88049     -475.63343      4355.237     
     29720   567.86724     -920.26991     -1784.8654      4359.6881    
     29730   548.24672     -919.72239     -2640.4572      4363.6165    
     29740   555.68179     -919.90238     -3235.3421      4366.7387    
     29750   596.47692     -920.98668     -3576.8295      4368.8581    
     29760   576.17097     -920.35946     -3645.5946      4369.8584    
     29770   572.26403     -920.17442     -3476.9349      4369.7122    
     29780   626.29562     -921.57862     -3276.6352      4368.4607    
     29790   596.11276     -920.63185     -2735.5423      4366.1738    
     29800   532.02267     -918.73451     -2072.9475      4363.0109    
     29810   573.3417      -919.72629     -1505.8987      4359.1729    
     29820   578.24758     -919.64638     -374.49545      4354.8617    
     29830   594.81013     -919.85178      877.99152      4350.4173    
     29840   644.76107     -920.94219      1914.7042      4346.2307    
     29850   599.06619     -919.3717       2697.7949      4342.6267    
     29860   550.32842     -917.74223      3286.0733      4339.854     
     29870   636.19266     -919.84124      3822.5782      4338.1062    
     29880   661.84429     -920.26608      4481.1242      4337.5627    
     29890   624.13233     -918.99755      4593.4773      4338.4197    
     29900   662.0511      -919.88337      3634.9532      4340.7064    
     29910   629.92492     -918.86655      2515.9802      4344.1624    
     29920   583.95494     -917.50272      1388.0666      4348.4485    
     29930   609.36826     -918.13192      141.73924      4353.212     
     29940   592.75571     -917.59514     -911.49359      4358.0713    
     29950   596.41673     -917.62672     -1737.9418      4362.6926    
     29960   667.17926     -919.53011     -2447.6343      4366.8087    
     29970   676.05068     -919.74774     -2735.9432      4370.1966    
     29980   647.32174     -918.96455     -3176.942       4372.7375    
     29990   662.99406     -919.45149     -4007.675       4374.2771    
     30000   606.19988     -917.94748     -4388.9076      4374.5649    
     30010   588.58608     -917.5322      -4134.8075      4373.4716    
     30020   642.25521     -919.10263     -3593.2895      4371.0556    
     30030   620.40327     -918.58706     -2533.667       4367.4925    
     30040   616.12713     -918.5652      -1420.1356      4363.0988    
     30050   660.96585     -919.92133     -484.24534      4358.2183    
     30060   650.65512     -919.76997      644.45223      4353.1594    
     30070   626.29043     -919.24277      1738.5512      4348.2701    
     30080   610.83215     -918.96768      2692.4596      4343.8947    
     30090   563.62939     -917.79035      3560.6624      4340.3386    
     30100   602.54559     -918.98722      4076.4405      4337.8724    
     30110   645.66584     -920.30735      4104.8383      4336.6614    
     30120   618.67775     -919.69476      4044.2785      4336.7396    
     30130   571.31918     -918.50777      3685.3269      4338.091     
     30140   585.6267      -919.01287      3092.3017      4340.6217    
     30150   605.98645     -919.67504      2304.5933      4344.1574    
     30160   588.67674     -919.27863      1580.889       4348.4733    
     30170   601.82374     -919.71812      601.57211      4353.3391    
     30180   616.62804     -920.19266     -497.0484       4358.4591    
     30190   659.67108     -921.46086     -1839.8144      4363.4803    
     30200   627.21337     -920.64593     -3019.218       4367.9864    
     30210   571.45227     -919.17835     -4042.3832      4371.5904    
     30220   566.64681     -919.10302     -4731.5482      4373.9567    
     30230   581.179       -919.54879     -5017.496       4374.8466    
     30240   549.53864     -918.69314     -4597.1365      4374.1617    
     30250   582.7085      -919.62272     -3951.7373      4372.0011    
     30260   618.27499     -920.61088     -3144.8719      4368.5581    
     30270   601.62912     -920.15371     -2062.29        4364.0814    
     30280   587.27465     -919.75933     -891.79588      4358.903     
     30290   605.35854     -920.2594       128.18424      4353.3821    
     30300   606.06102     -920.2754       1151.8403      4347.8434    
     30310   564.6186      -919.11556      2328.5057      4342.6168    
     30320   546.96891     -918.5993       3454.7393      4338.0695    
     30330   579.97376     -919.46868      4321.7083      4334.5569    
     30340   631.0757      -920.83558      4961.4444      4332.364     
     30350   615.38211     -920.36364      5395.8518      4331.7067    
     30360   585.03606     -919.50171      5268.4954      4332.7341    
     30370   600.55811     -919.91735      4333.8876      4335.4218    
     30380   617.21902     -920.36746      3387.154       4339.5274    
     30390   602.51169     -919.95289      2428.2371      4344.776     
     30400   607.13571     -920.07789      1041.2344      4350.8754    
     30410   611.65948     -920.19899     -736.84648      4357.4007    
     30420   593.81559     -919.6939      -2406.8119      4363.8093    
     30430   602.62486     -919.92829     -3867.2582      4369.5613    
     30440   542.3675      -918.23315     -4711.1188      4374.1919    
     30450   533.065       -917.93533     -5573.6435      4377.383     
     30460   585.83628     -919.33566     -5975.2813      4378.8495    
     30470   626.05416     -920.38149     -5677.4434      4378.4355    
     30480   606.60676     -919.78204     -4769.3579      4376.2087    
     30490   628.15409     -920.33771     -4007.7466      4372.4103    
     30500   613.35674     -919.89447     -2885.8465      4367.2832    
     30510   568.76775     -918.62715     -1485.7057      4361.1629    
     30520   592.79394     -919.25063      131.7542       4354.485     
     30530   636.76631     -920.41481      1836.7173      4347.7531    
     30540   614.73449     -919.7471       3517.0654      4341.5071    
     30550   628.50144     -920.08504      4589.2141      4336.2648    
     30560   637.25333     -920.29661      5380.1664      4332.3911    
     30570   612.96273     -919.61153      5769.2778      4330.1465    
     30580   605.52832     -919.41249      5639.325       4329.677     
     30590   578.66933     -918.68259      5085.8059      4330.9743    
     30600   548.58701     -917.85518      4328.9922      4333.9037    
     30610   597.97671     -919.21657      3263.2658      4338.2572    
     30620   617.8397      -919.73954      2117.4644      4343.736     
     30630   567.73926     -918.30703      971.43166      4350.0056    
     30640   601.10429     -919.1678      -555.41907      4356.7072    
     30650   656.91448     -920.62289     -2057.5023      4363.3755    
     30660   607.28563     -919.14674     -3123.6838      4369.5401    
     30670   606.59923     -919.03379     -4140.1569      4374.8314    
     30680   646.83164     -920.05038     -5094.9899      4378.8987    
     30690   642.20735     -919.83595     -5523.4209      4381.4235    
     30700   620.72416     -919.1782      -5804.5602      4382.2222    
     30710   632.76944     -919.47402     -5927.3723      4381.1686    
     30720   598.34521     -918.49512     -5456.8066      4378.2002    
     30730   583.46329     -918.06534     -4397.0668      4373.4337    
     30740   608.37466     -918.73304     -2818.4668      4367.1814    
     30750   618.03837     -918.96993     -1020.0994      4359.9187    
     30760   629.94486     -919.27086      800.77672      4352.2005    
     30770   633.72153     -919.35203      2623.5865      4344.6033    
     30780   624.42979     -919.08299      4028.2231      4337.6925    
     30790   603.97542     -918.51364      5258.223       4331.9342    
     30800   616.06522     -918.85773      6058.0419      4327.7214    
     30810   622.31828     -919.05484      6651.3094      4325.3383    
     30820   604.11773     -918.59274      6942.5832      4325.0028    
     30830   589.8406      -918.25108      6714.3318      4326.8436    
     30840   627.50906     -919.36354      5846.2534      4330.8325    
     30850   663.88247     -920.46691      4583.9885      4336.7549    
     30860   636.68891     -919.84029      2974.0468      4344.2621    
     30870   596.12368     -918.85096      971.46135      4352.8824    
     30880   638.28018     -920.16316     -1432.3678      4362.0024    
     30890   632.61858     -920.16125     -3623.1626      4370.8804    
     30900   582.06007     -918.91248     -5421.4424      4378.8034    
     30910   570.68479     -918.7375      -6990.2524      4385.1564    
     30920   597.0154      -919.60602     -8168.7688      4389.3937    
     30930   589.26782     -919.5388      -8635.3354      4391.0893    
     30940   558.66405     -918.8337      -8287.1109      4390.0424    
     30950   577.26856     -919.49169     -7496.6055      4386.3013    
     30960   586.99563     -919.90003     -6189.3321      4380.0806    
     30970   573.90854     -919.66477     -4228.7315      4371.7703    
     30980   587.92528     -920.16173     -1721.0521      4361.9733    
     30990   611.44116     -920.90729      764.92537      4351.4623    
     31000   598.91011     -920.63843      3025.4015      4341.0194    
     31010   587.64273     -920.39504      5175.8373      4331.3677    
     31020   555.03225     -919.53806      7224.0167      4323.1977    
     31030   575.0746      -920.12949      8587.1641      4317.1503    
     31040   600.13628     -920.86208      9427.6668      4313.6879    
     31050   593.46835     -920.72988      9612.547       4313.1071    
     31060   581.02594     -920.45117      9006.2628      4315.5145    
     31070   595.7533      -920.93914      7462.4421      4320.7726    
     31080   563.83893     -920.12944      5515.4144      4328.4786    
     31090   540.09422     -919.52547      3213.5214      4338.0737    
     31100   556.84093     -920.00901      783.92711      4348.879     
     31110   568.12865     -920.2984      -1634.454       4360.1509    
     31120   589.5105      -920.83262     -4100.6598      4371.1162    
     31130   580.20322     -920.48438     -6187.304       4380.9815    
     31140   558.94564     -919.78148     -7960.5461      4389.0349    
     31150   555.05736     -919.53287     -9251.8439      4394.6639    
     31160   584.31962     -920.17347     -10002.625      4397.3977    
     31170   601.40327     -920.44801     -9820.7521      4396.9527    
     31180   595.24765     -920.06356     -8771.4155      4393.3378    
     31190   580.68759     -919.43003     -7040.3446      4386.8538    
     31200   610.7146      -920.01038     -5155.5623      4378.0164    
     31210   641.51431     -920.5814      -2939.5579      4367.4258    
     31220   599.71264     -919.14234     -266.35898      4355.7907    
     31230   615.77974     -919.32061      2338.9309      4343.9451    
     31240   623.34565     -919.26185      4769.0287      4332.7173    
     31250   565.12324     -917.39932      7188.0014      4322.8858    
     31260   584.49346     -917.71081      8979.6999      4315.1953    
     31270   684.04618     -920.26126      10172.182      4310.2192    
     31280   631.5985      -918.64816      11189.402      4308.3646    
     31290   587.90578     -917.35022      11035.316      4309.9484    
     31300   655.55087     -919.17999      9678.8264      4314.9706    
     31310   672.53404     -919.64201      7753.4305      4323.0809    
     31320   630.03623     -918.49092      5279.3071      4333.7323    
     31330   664.85793     -919.50544      2005.3426      4346.1788    
     31340   615.87526     -918.19022     -1013.0776      4359.4462    
     31350   588.77352     -917.46377     -4111.115       4372.5623    
     31360   638.78453     -918.86129     -6954.9447      4384.5306    
     31370   624.91657     -918.48974     -8975.1282      4394.4172    
     31380   605.1905      -917.97015     -10313.039      4401.5228    
     31390   651.54203     -919.31621     -11185.068      4405.3623    
     31400   640.16281     -919.10697     -11088.502      4405.633     
     31410   602.44866     -918.201       -10258.005      4402.3259    
     31420   635.0521      -919.2767      -9017.9421      4395.6832    
     31430   625.07234     -919.1934      -7052.2826      4386.1116    
     31440   588.7457      -918.37435     -4467.1882      4374.244     
     31450   606.88099     -919.04497     -1482.3257      4360.9135    
     31460   625.80079     -919.71825      1810.7991      4347.0815    
     31470   606.35573     -919.30175      4972.1206      4333.7873    
     31480   628.92737     -920.04049      7639.74        4322.0145    
     31490   614.08288     -919.74187      10131.462      4312.6046    
     31500   583.91693     -919.01517      11577.804      4306.2976    
     31510   599.77916     -919.57859      11653.27       4303.5307    
     31520   574.5902      -919.01086      10926.85       4304.3458    
     31530   546.19575     -918.34611      10080.951      4308.5583    
     31540   586.36245     -919.57243      8667.2816      4315.9163    
     31550   643.98163     -921.28538      6610.2452      4326.0126    
     31560   612.60558     -920.52726      4108.5674      4338.2407    
     31570   596.95756     -920.1856       1075.6711      4351.832     
     31580   621.36543     -920.92452     -2380.3875      4365.8365    
     31590   619.54097     -920.90886     -5715.8946      4379.1631    
     31600   571.13316     -919.57672     -8476.2236      4390.7359    
     31610   523.59309     -918.23749     -10624.787      4399.6364    
     31620   569.59168     -919.47955     -12048.566      4405.1479    
     31630   593.36188     -920.113       -12208.88       4406.8046    
     31640   552.78295     -918.97827     -11259.654      4404.543     
     31650   583.93299     -919.84993     -10090.022      4398.645     
     31660   594.13603     -920.14384     -8123.9648      4389.5253    
     31670   570.74197     -919.50149     -5338.8888      4377.8392    
     31680   601.26859     -920.33493     -2147.457       4364.496     
     31690   653.14112     -921.74345      951.4457       4350.5204    
     31700   594.5994      -920.07906      3949.112       4336.9075    
     31710   543.83034     -918.61421      6474.4032      4324.5856    
     31720   555.0285      -918.84252      8657.8836      4314.3342    
     31730   578.94377     -919.40604      10605.56       4306.8124    
     31740   614.01279     -920.28786      11775.757      4302.5814    
     31750   615.27604     -920.26316      12233.336      4301.9838    
     31760   592.77353     -919.61604      11898.257      4305.1499    
     31770   627.44357     -920.58673      10195.245      4311.959     
     31780   637.33157     -920.88994      7824.9947      4321.9201    
     31790   603.52312     -919.9916       4773.9874      4334.3083    
     31800   574.21309     -919.19831      1210.2937      4348.1865    
     31810   563.70927     -918.88508     -2401.0576      4362.443     
     31820   562.75801     -918.78909     -5512.3228      4375.941     
     31830   600.6731      -919.74239     -8027.691       4387.6728    
     31840   578.44192     -919.01391     -9520.1224      4396.8324    
     31850   577.32144     -918.8779      -10672.424      4402.9051    
     31860   621.5519      -920.00929     -11389.941      4405.5246    
     31870   612.88738     -919.69768     -11161.189      4404.4828    
     31880   577.25135     -918.66377     -9870.2401      4399.8812    
     31890   617.80316     -919.75374     -8161.807       4392.1474    
     31900   623.83515     -919.88094     -6096.3543      4381.8664    
     31910   609.86025     -919.45071     -3471.9612      4369.7428    
     31920   627.05257     -919.86871     -464.74928      4356.6367    
     31930   612.95645     -919.3942       2846.0117      4343.5221    
     31940   584.83259     -918.50541      5707.0944      4331.4174    
     31950   625.22051     -919.49575      7936.7303      4321.1979    
     31960   644.79802     -919.89662      9591.6721      4313.5269    
     31970   631.97354     -919.41417      10760.038      4308.8859    
     31980   628.04404     -919.20181      11078.366      4307.5885    
     31990   592.70512     -918.13325      10385.244      4309.6998    
     32000   599.47074     -918.23241      8827.1459      4314.9927    
     32010   624.73064     -918.82134      6919.8731      4322.9897    
     32020   591.9719      -917.77357      4703.7479      4333.095     
     32030   578.11524     -917.21847      2249.8527      4344.6205    
     32040   633.14567     -918.51944     -220.83336      4356.8022    
     32050   682.29478     -919.61193     -2460.9304      4368.8624    
     32060   684.74206     -919.41537     -4609.5872      4380.0793    
     32070   695.94477     -919.50179     -6957.0081      4389.7565    
     32080   662.33116     -918.39267     -9001.2501      4397.1515    
     32090   624.10003     -917.20873     -9976.2538      4401.6366    
     32100   652.88862     -917.92606     -10519.66       4402.8861    
     32110   655.22268     -917.95335     -10196.422      4400.7697    
     32120   621.11017     -917.01612     -9046.1336      4395.4205    
     32130   619.94695     -917.01753     -7016.5         4387.2538    
     32140   680.84373     -918.75981     -4589.3409      4376.9457    
     32150   680.9497      -918.84452     -1885.5285      4365.3087    
     32160   639.31711     -917.80026      611.53388      4353.2075    
     32170   615.79066     -917.26739      3103.6099      4341.451     
     32180   622.79066     -917.58518      5506.6716      4330.8106    
     32190   637.7677      -918.14605      7604.5527      4322.0067    
     32200   619.81974     -917.81749      9341.5741      4315.6615    
     32210   649.67677     -918.85694      10142.976      4312.255     
     32220   655.45177     -919.28934      10163.739      4312.0012    
     32230   595.1304      -917.90978      9776.5652      4314.8876    
     32240   627.06474     -919.09351      8432.0279      4320.7557    
     32250   698.51919     -921.41388      6294.5544      4329.1805    
     32260   632.13801     -919.91109      4150.464       4339.5174    
     32270   606.8129      -919.49221      1371.0852      4351.0688    
     32280   637.28108     -920.57635     -1834.4688      4362.9626    
     32290   585.84616     -919.33        -4653.3909      4374.2045    
     32300   538.01178     -918.11146     -7029.4129      4383.8949    
     32310   556.52354     -918.68457     -8923.2019      4391.2733    
     32320   567.50498     -919.02393     -9717.1663      4395.7639    
     32330   574.92725     -919.25735     -9733.3105      4397.1187    
     32340   617.55164     -920.4774      -9173.4325      4395.3558    
     32350   610.11869     -920.32368     -7935.6601      4390.6949    
     32360   591.58832     -919.86863     -6329.7709      4383.5636    
     32370   622.56258     -920.79173     -4651.9359      4374.502     
     32380   579.16676     -919.6404      -2352.5422      4364.0979    
     32390   551.36021     -918.89616      76.047743      4353.0867    
     32400   579.584       -919.671        2540.2862      4342.2468    
     32410   596.17766     -920.09615      4961.7699      4332.3431    
     32420   584.43251     -919.71876      7158.9031      4324.1112    
     32430   630.52698     -920.95039      8446.6308      4318.1791    
     32440   620.94815     -920.6561       9263.168       4314.9248    
     32450   572.57055     -919.30585      9409.6963      4314.5572    
     32460   607.1557      -920.27401      8684.793       4317.086     
     32470   604.30003     -920.20928      7390.8123      4322.2722    
     32480   591.38111     -919.87272      5675.1618      4329.7068    
     32490   584.11135     -919.68352      3368.8935      4338.8416    
     32500   578.99763     -919.53252      871.71873      4348.9635    
     32510   563.19632     -919.05365     -1511.7298      4359.2894    
     32520   577.17008     -919.36857     -3641.1218      4369.0707    
     32530   589.83876     -919.61715     -5534.2135      4377.628     
     32540   556.33427     -918.5624      -6723.5783      4384.3766    
     32550   589.90852     -919.35086     -7405.1254      4388.9369    
     32560   648.15554     -920.80146     -7641.8267      4391.1041    
     32570   653.53605     -920.79291     -7536.2559      4390.8186    
     32580   627.32141     -919.93494     -7076.9826      4388.1392    
     32590   610.29305     -919.34945     -6232.5205      4383.2401    
     32600   607.12263     -919.14767     -5000.5649      4376.422     
     32610   601.56132     -918.8677      -3348.7763      4368.1042    
     32620   585.60906     -918.27749     -1142.4202      4358.8395    
     32630   615.44935     -918.92712      1218.2724      4349.3288    
     32640   629.25653     -919.09909      3686.4946      4340.3195    
     32650   629.44272     -918.88566      5610.0405      4332.5534    
     32660   639.85079     -918.95989      6851.2188      4326.611     
     32670   644.59461     -918.89558      7273.0993      4322.8415    
     32680   608.91563     -917.73424      7614.0142      4321.3727    
     32690   615.95567     -917.78067      7560.4563      4322.2749    
     32700   646.07354     -918.47624      6881.6754      4325.5062    
     32710   634.82868     -918.0432       5911.7346      4330.856     
     32720   645.39335     -918.23656      4480.8646      4338.0087    
     32730   696.97868     -919.58761      2606.7569      4346.5118    
     32740   677.36471     -918.9955       555.09531      4355.783     
     32750   630.52294     -917.68107     -1608.8423      4365.1755    
     32760   637.48199     -917.87469     -3902.837       4373.9992    
     32770   637.78465     -917.89839     -5761.0529      4381.542     
     32780   630.92668     -917.75037     -7005.8104      4387.217     
     32790   644.90487     -918.22057     -7786.9921      4390.6261    
     32800   649.13975     -918.4778      -8129.6798      4391.5296    
     32810   626.83234     -918.05993     -7508.8343      4389.8551    
     32820   620.55951     -918.14233     -6406.2546      4385.8091    
     32830   638.28323     -918.94959     -5116.174       4379.7628    
     32840   640.43274     -919.38298     -3507.2726      4372.1559    
     32850   631.19318     -919.53259     -1748.5994      4363.5164    
     32860   602.59111     -919.13557      86.31163       4354.416     
     32870   570.30063     -918.56906      1851.2119      4345.4345    
     32880   602.70651     -919.7367       3564.94        4337.1254    
     32890   610.9137      -920.18827      5122.7634      4330.0093    
     32900   564.07031     -919.05363      6789.122       4324.5647    
     32910   577.48554     -919.54444      7889.9838      4321.2692    
     32920   608.37188     -920.5037       7905.9733      4320.4229    
     32930   600.76404     -920.39003      7564.6088      4322.0357    
     32940   594.20343     -920.30304      6731.557       4325.9826    
     32950   606.0453      -920.72158      5186.7071      4331.9902    
     32960   600.58868     -920.65557      3259.6875      4339.5821    
     32970   552.60009     -919.3843       1382.636       4348.167     
     32980   584.56743     -920.30801     -691.24561      4357.1428    
     32990   586.2761      -920.36562     -2560.9078      4365.8685    
     33000   564.15781     -919.7439      -4383.7501      4373.7424    
     33010   572.12339     -919.93698     -6032.7162      4380.1885    
     33020   609.60884     -920.94122     -7211.594       4384.6897    
     33030   588.88507     -920.33469     -7697.1701      4386.8816    
     33040   546.32278     -919.12644     -7547.9058      4386.6181    
     33050   554.97505     -919.32961     -6999.4655      4383.9569    
     33060   581.55031     -920.01211     -5929.2142      4379.0979    
     33070   568.8938      -919.58709     -4214.6712      4372.4092    
     33080   580.91246     -919.82644     -2284.7433      4364.4446    
     33090   626.20238     -920.96384     -235.64398      4355.8295    
     33100   607.00055     -920.29645      1998.9384      4347.2239    
     33110   599.47478     -919.95         3842.991       4339.3143    
     33120   623.8998      -920.4859       4973.6272      4332.6557    
     33130   560.57309     -918.58382      5952.6721      4327.605     
     33140   578.97548     -918.95096      6679.304       4324.4447    
     33150   639.5028      -920.46903      7196.5264      4323.3857    
     33160   617.12385     -919.69682      7212.6191      4324.5643    
     33170   589.53221     -918.80266      6441.6172      4327.9667    
     33180   642.58663     -920.15086      5035.4732      4333.351     
     33190   634.83999     -919.81368      3585.6792      4340.2948    
     33200   592.31301     -918.52642      1705.4254      4348.3309    
     33210   599.91509     -918.62245     -776.96586      4356.8606    
     33220   589.83892     -918.20622     -2952.0681      4365.1272    
     33230   579.49332     -917.76705     -4396.3789      4372.4484    
     33240   612.87989     -918.52703     -5234.889       4378.3603    
     33250   654.23933     -919.50183     -5838.308       4382.5858    
     33260   646.24795     -919.12673     -6269.3557      4384.9342    
     33270   652.63701     -919.18475     -6414.7746      4385.2773    
     33280   645.06182     -918.88501     -5814.2095      4383.5953    
     33290   633.62205     -918.50479     -4935.1397      4380.0781    
     33300   660.24558     -919.20423     -4241.338       4375.0077    
     33310   635.48341     -918.5013      -3389.7325      4368.6287    
     33320   587.48891     -917.16718     -1818.247       4361.2423    
     33330   605.43922     -917.6544       333.33332      4353.3531    
     33340   658.81826     -919.11854      2494.3446      4345.6287    
     33350   649.26393     -918.85158      4501.4197      4338.7457    
     33360   651.98391     -918.96375      5742.4548      4333.302     
     33370   664.00904     -919.39408      6353.0588      4329.6763    
     33380   618.9246      -918.30108      6579.5803      4328.0507    
     33390   616.69783     -918.45711      6193.3592      4328.4734    
     33400   623.68822     -918.92645      5344.2542      4330.8221    
     33410   599.51208     -918.57575      4202.6268      4334.8283    
     33420   567.43067     -918.0021       2998.3022      4340.14      
     33430   592.55177     -919.00789      1665.2093      4346.3781    
     33440   594.8161      -919.36306      476.57801      4353.1315    
     33450   607.88707     -919.99611     -814.99267      4360.0182    
     33460   623.40368     -920.67935     -2301.4028      4366.6259    
     33470   627.23199     -921.02332     -3649.5875      4372.4925    
     33480   616.91486     -920.95999     -4877.8042      4377.1852    
     33490   581.56193     -920.17358     -5722.2111      4380.3222    
     33500   578.5006      -920.25407     -6349.8694      4381.6285    
     33510   578.26041     -920.39293     -6433.3245      4380.9195    
     33520   548.42486     -919.68544     -5868.8418      4378.1808    
     33530   539.49619     -919.52696     -4814.0276      4373.6005    
     33540   571.5822      -920.47859     -3424.9416      4367.5267    
     33550   581.83619     -920.80333     -1834.4916      4360.4091    
     33560   545.53182     -919.8102      -58.264035      4352.7623    
     33570   557.10362     -920.11694      1577.1719      4345.1447    
     33580   578.46255     -920.66655      3206.1541      4338.0744    
     33590   550.72055     -919.83097      4822.7445      4332.0515    
     33600   555.11055     -919.8665       6044.8885      4327.5642    
     33610   619.63781     -921.55531      6507.647       4324.9674    
     33620   607.88943     -921.12715      6748.4816      4324.4109    
     33630   580.97721     -920.29393      6689.2168      4325.9572    
     33640   594.69215     -920.58993      5993.2814      4329.5738    
     33650   609.27415     -920.90507      4623.9424      4335.0416    
     33660   580.35051     -920.00722      2873.0551      4341.9417    
     33670   581.43345     -919.93067      916.3708       4349.7311    
     33680   588.39506     -919.9911      -1115.963       4357.7964    
     33690   572.34623     -919.39194     -2911.8014      4365.5037    
     33700   561.94098     -918.9283      -4428.8025      4372.2812    
     33710   590.24093     -919.51715     -5684.1731      4377.639     
     33720   595.51345     -919.45065     -6144.5256      4381.1951    
     33730   587.0849      -919.00992     -6193.5712      4382.79      
     33740   609.23454     -919.4232      -6082.266       4382.4067    
     33750   611.73381     -919.30051     -5525.7109      4380.0978    
     33760   613.94614     -919.18967     -4471.1568      4376.0553    
     33770   652.51567     -920.10719     -3425.5519      4370.6086    
     33780   634.36982     -919.47739     -1966.7419      4364.1189    
     33790   587.72055     -918.08222     -356.17606      4357.0487    
     33800   620.71882     -918.90579      1075.9462      4349.9028    
     33810   628.25127     -919.02566      2553.3469      4343.14      
     33820   612.20763     -918.50538      4222.5378      4337.2287    
     33830   651.71682     -919.5463       5443.5663      4332.6616    
     33840   648.68857     -919.43461      6209.1965      4329.8112    
     33850   624.96985     -918.78221      6444.1405      4328.906     
     33860   635.8955      -919.1179       5860.806       4329.9981    
     33870   633.33916     -919.10214      4986.0662      4332.9173    
     33880   604.01631     -918.35398      3969.0927      4337.3946    
     33890   624.03399     -918.98137      2546.0621      4343.1013    
     33900   594.08014     -918.21795      846.19823      4349.5968    
     33910   552.65012     -917.11227     -752.51271      4356.3568    
     33920   624.73368     -919.1407      -2106.6073      4362.8782    
     33930   657.3833      -920.07937     -3290.2842      4368.7279    
     33940   596.49879     -918.43421     -4122.6597      4373.5338    
     33950   609.22656     -918.83266     -4849.9113      4377.021     
     33960   665.25633     -920.44713     -5227.2847      4378.966     
     33970   636.0727      -919.71857     -4987.2322      4379.2604    
     33980   631.44221     -919.68882     -4863.037       4377.9596    
     33990   642.27056     -920.10105     -4526.5046      4375.1248    
     34000   601.66636     -919.08828     -3828.2463      4370.8727    
     34010   567.12207     -918.22242     -2876.3844      4365.4318    
     34020   579.17479     -918.62301     -1569.5341      4359.1171    
     34030   601.89988     -919.29559      108.20948      4352.3505    
     34040   617.0915      -919.74966      1820.859       4345.6552    
     34050   594.19        -919.13595      3488.0378      4339.5695    
     34060   618.26805     -919.82465      4595.6675      4334.5951    
     34070   616.83706     -919.80863      5151.1155      4331.0697    
     34080   590.90406     -919.11886      5384.3757      4329.1637    
     34090   572.9567      -918.64548      5362.752       4328.9472    
     34100   594.15517     -919.25423      5006.1041      4330.4027    
     34110   584.98244     -919.01407      4661.5385      4333.4276    
     34120   600.43793     -919.45542      3974.6694      4337.9017    
     34130   650.15246     -920.85375      2746.6409      4343.6085    
     34140   634.63333     -920.45714      1162.6689      4350.1699    
     34150   604.1772      -919.6545      -559.045        4357.0926    
     34160   611.54134     -919.90127     -2105.5069      4363.8406    
     34170   596.37094     -919.51816     -3342.7764      4369.9268    
     34180   589.16332     -919.35112     -4639.9774      4374.9416    
     34190   590.66124     -919.42259     -5609.1295      4378.4811    
     34200   572.94744     -918.95529     -6006.5385      4380.2427    
     34210   592.01629     -919.50762     -6033.8525      4380.0942    
     34220   602.41731     -919.8216      -5696.3466      4378.0331    
     34230   575.56385     -919.10256     -4931.8556      4374.1797    
     34240   582.21434     -919.30667     -3673.6007      4368.7859    
     34250   623.18726     -920.45615     -1928.4453      4362.2639    
     34260   597.39403     -919.74842      34.050719      4355.1704    
     34270   574.13335     -919.10157      1741.389       4348.1176    
     34280   625.37428     -920.51468      2816.5965      4341.6297    
     34290   625.54909     -920.51444      4039.9174      4336.0653    
     34300   582.78168     -919.33202      5198.0578      4331.7932    
     34310   598.34443     -919.77476      5664.7981      4329.1477    
     34320   587.74848     -919.49602      5686.2931      4328.2733    
     34330   553.69536     -918.5628       5589.8634      4329.1818    
     34340   608.23475     -920.08433      5067.2248      4331.8279    
     34350   633.3873      -920.79047      4359.5425      4336.0584    
     34360   611.48024     -920.20597      3139.8473      4341.6445    
     34370   596.86268     -919.83067      1262.3706      4348.2009    
     34380   594.17297     -919.78354     -598.5825       4355.1554    
     34390   571.98048     -919.18421     -1952.0222      4361.9355    
     34400   578.7966      -919.37782     -3236.5416      4368.0955    
     34410   594.57283     -919.80891     -4474.978       4373.2234    
     34420   580.23151     -919.39714     -5278.4807      4376.9348    
     34430   592.32002     -919.71615     -5671.2395      4378.9701    
     34440   627.66805     -920.68396     -5679.3871      4379.2043    
     34450   615.16626     -920.33804     -5250.4731      4377.6403    
     34460   579.68113     -919.36553     -4644.397       4374.4132    
     34470   559.1022      -918.79991     -3735.768       4369.7297    
     34480   566.74584     -918.99732     -2419.0445      4363.8903    
     34490   589.84737     -919.59831     -785.43558      4357.3189    
     34500   621.13493     -920.41021      922.48985      4350.5325    
     34510   623.81787     -920.42383      2376.268       4344.0614    
     34520   612.28233     -920.05011      3728.8354      4338.3657    
     34530   590.79456     -919.40183      4862.2275      4333.8595    
     34540   610.38798     -919.89443      5677.2115      4330.8886    
     34550   640.95455     -920.70101      5868.2179      4329.6892    
     34560   596.03282     -919.42919      5571.1176      4330.3226    
     34570   572.41202     -918.75598      4497.2047      4332.6789    
     34580   604.00697     -919.60714      3419.4638      4336.447     
     34590   597.28545     -919.38692      2597.2292      4341.2986    
     34600   566.4604      -918.49057      1465.7113      4346.958     
     34610   581.27921     -918.84212      179.27877      4353.077     
     34620   612.89738     -919.63806     -1141.4393      4359.252     
     34630   616.06772     -919.63448     -2314.3723      4365.0711    
     34640   623.32101     -919.74682     -3488.7318      4370.1532    
     34650   623.56678     -919.66943     -4502.6925      4374.1278    
     34660   630.55656     -919.79233     -5158.5218      4376.6765    
     34670   610.2481      -919.17191     -5390.1013      4377.5911    
     34680   586.99915     -918.4791      -5061.234       4376.8044    
     34690   610.81554     -919.09259     -4470.9883      4374.4136    
     34700   619.32843     -919.2799      -3548.6799      4370.6197    
     34710   609.48685     -918.96165     -2452.3762      4365.7173    
     34720   624.15512     -919.32571     -1279.0625      4360.0578    
     34730   633.98077     -919.55875      21.18181       4354.0205    
     34740   622.67        -919.21425      1343.0411      4348.0168    
     34750   614.12281     -918.95369      2679.662       4342.4627    
     34760   621.18746     -919.13389      3825.0331      4337.7685    
     34770   610.29769     -918.82382      4707.5351      4334.288     
     34780   607.25904     -918.74399      5237.809       4332.2876    
     34790   590.90047     -918.30176      5360.9551      4331.9244    
     34800   608.62936     -918.81132      4917.8839      4333.2295    
     34810   659.64062     -920.26318      4004.5434      4336.0676    
     34820   617.55114     -919.15837      3120.4355      4340.1687    
     34830   580.00613     -918.19312      1892.9354      4345.2429    
     34840   600.16568     -918.83164      508.64049      4350.9129    
     34850   589.45011     -918.61128     -506.0416       4356.7594    
     34860   612.90994     -919.34384     -1421.572       4362.4532    
     34870   678.2961      -921.27        -2708.2407      4367.6864    
     34880   649.05666     -920.623       -3741.8188      4372.0679    
     34890   581.11475     -918.92114     -4512.5651      4375.2688    
     34900   629.25757     -920.46594     -5278.7892      4377.0289    
     34910   609.14039     -920.14705     -5345.6135      4377.1271    
     34920   535.26238     -918.32219     -5205.0922      4375.5281    
     34930   547.75143     -918.86554     -4910.8917      4372.28      
     34940   574.55293     -919.79325     -3817.246       4367.5012    
     34950   538.44559     -918.94099     -1917.1356      4361.5505    
     34960   587.39102     -920.42258     -340.43474      4355.0015    
     34970   613.06572     -921.25079      981.13858      4348.3604    
     34980   563.33747     -919.96997      2476.5808      4342.0609    
     34990   581.58034     -920.55707      3826.7912      4336.5593    
     35000   616.57546     -921.60698      4728.7534      4332.2648    
     35010   551.27247     -919.8668       5290.9114      4329.4583    
     35020   537.80925     -919.54476      5455.9236      4328.3056    
     35030   608.13961     -921.53949      5297.7558      4328.8558    
     35040   573.06746     -920.60179      5124.3989      4331.0683    
     35050   560.8468      -920.2928       4376.2886      4334.8728    
     35060   602.58428     -921.46946      3067.1399      4340.0395    
     35070   594.15079     -921.24389      1693.8396      4346.1766    
     35080   583.00845     -920.93645     -20.976526      4352.8456    
     35090   564.26562     -920.39991     -1992.5422      4359.5075    
     35100   523.43224     -919.22117     -3559.9399      4365.557     
     35110   518.01127     -918.98597     -4747.4091      4370.4873    
     35120   544.06775     -919.57341     -5390.8737      4373.9218    
     35130   569.44565     -920.08791     -5500.1888      4375.6525    
     35140   593.63327     -920.52129     -5060.089       4375.6469    
     35150   618.11475     -920.92211     -4365.5468      4374.0362    
     35160   590.87418     -919.86686     -3416.0675      4371.0509    
     35170   594.73445     -919.66978     -2773.1664      4366.9778    
     35180   639.64378     -920.59767     -1995.3617      4362.0409    
     35190   629.08496     -920.00118     -575.66181      4356.5064    
     35200   577.22191     -918.30567      1109.3557      4350.8177    
     35210   609.20812     -918.96835      2309.7061      4345.4822    
     35220   632.15338     -919.39823      3417.0936      4340.891     
     35230   625.68284     -919.05634      4255.3157      4337.3811    
     35240   638.02448     -919.28072      4767.4587      4335.2103    
     35250   646.69389     -919.44546      4898.9131      4334.5318    
     35260   610.36409     -918.39688      4521.6048      4335.3843    
     35270   599.97438     -918.08824      3493.8429      4337.641     
     35280   621.62179     -918.67602      2629.7416      4341.0077    
     35290   623.98544     -918.74154      1829.93        4345.209     
     35300   563.84623     -917.07275      992.49211      4349.9943    
     35310   598.05656     -918.01471     -247.6079       4355.0871    
     35320   668.7572      -919.96863     -1277.1102      4360.1171    
     35330   657.1719      -919.66607     -1836.141       4364.7651    
     35340   633.65362     -919.06269     -2603.6652      4368.8292    
     35350   643.44187     -919.4046      -3559.4269      4372.0664    
     35360   641.49506     -919.44464     -4190.0141      4374.1832    
     35370   609.10252     -918.65626     -4263.78        4374.9849    
     35380   603.01109     -918.60327     -4316.3631      4374.429     
     35390   625.87517     -919.36357     -4117.0605      4372.509     
     35400   621.15576     -919.37166     -3454.3019      4369.2963    
     35410   605.04264     -919.0693      -2466.7578      4365.0033    
     35420   601.74621     -919.12158     -1523.6077      4359.9365    
     35430   601.60509     -919.25605     -405.87081      4354.4041    
     35440   608.64678     -919.58638      1006.1274      4348.7661    
     35450   594.8197      -919.33108      2418.6366      4343.4605    
     35460   586.63277     -919.22126      3338.5309      4338.9149    
     35470   593.21907     -919.5159       3687.5005      4335.4119    
     35480   566.1994      -918.86399      4196.7479      4333.0808    
     35490   593.20957     -919.70128      4664.3726      4332.07      
     35500   624.3106      -920.65806      4797.985       4332.5171    
     35510   587.04034     -919.72177      4670.9285      4334.4685    
     35520   590.08083     -919.90269      3870.9771      4337.8739    
     35530   613.29882     -920.64342      2650.1585      4342.4939    
     35540   582.88026     -919.89082      1457.905       4347.9638    
     35550   590.77943     -920.18999      50.448325      4353.9021    
     35560   636.3129      -921.53692     -1401.307       4359.8706    
     35570   574.74728     -919.91017     -2487.0417      4365.4224    
     35580   557.14316     -919.48916     -3712.0136      4370.1908    
     35590   599.20288     -920.71494     -4885.897       4373.788     
     35600   555.07274     -919.54138     -5387.8249      4375.8529    
     35610   523.74857     -918.70523     -5569.4614      4376.211     
     35620   581.37824     -920.32275     -5603.1078      4374.7962    
     35630   557.33563     -919.65458     -4583.4051      4371.6281    
     35640   552.32736     -919.49336     -3081.2746      4367.0177    
     35650   631.72733     -921.64685     -1713.5765      4361.4291    
     35660   601.18213     -920.72168     -99.411151      4355.3148    
     35670   576.19666     -919.93223      1281.0287      4349.1734    
     35680   610.03591     -920.73074      2204.7785      4343.4331    
     35690   602.66154     -920.333        3375.0649      4338.4033    
     35700   584.8412      -919.60219      4597.7029      4334.4445    
     35710   624.35281     -920.41399      5035.1566      4331.9096    
     35720   583.67271     -918.96503      5188.7051      4330.952     
     35730   575.78512     -918.4314       4957.1607      4331.6148    
     35740   635.92479     -919.76484      4274.3536      4333.8233    
     35750   608.71667     -918.6887       3791.7962      4337.3911    
     35760   582.69013     -917.69724      2956.5126      4342.156     
     35770   678.05466     -920.09461      1330.4977      4347.8457    
     35780   670.14939     -919.65542      128.08176      4353.9924    
     35790   592.10839     -917.33535     -929.48949      4360.2047    
     35800   634.74127     -918.39155     -2329.6164      4366.1337    
     35810   657.17464     -918.89899     -3714.8393      4371.3403    
     35820   610.47935     -917.51862     -4641.6458      4375.3925    
     35830   615.71681     -917.60153     -5248.8905      4377.9826    
     35840   669.00301     -919.0379      -5343.5071      4378.9162    
     35850   658.26711     -918.73335     -4766.4792      4378.167     
     35860   645.67936     -918.41823     -4228.1381      4375.8956    
     35870   654.39653     -918.72828     -3664.496       4372.2776    
     35880   636.44627     -918.32767     -2661.0156      4367.5077    
     35890   609.72795     -917.70019     -1589.0824      4361.8937    
     35900   602.87234     -917.62535     -319.95073      4355.7841    
     35910   646.37078     -918.95719      973.52895      4349.5773    
     35920   674.74939     -919.90433      2347.1654      4343.6843    
     35930   633.57917     -918.95111      3885.3348      4338.5387    
     35940   618.51068     -918.73731      5025.0866      4334.6041    
     35950   629.69649     -919.26657      5518.7015      4332.2323    
     35960   615.80445     -919.114        5365.8585      4331.5741    
     35970   603.00344     -918.98712      5043.2719      4332.6008    
     35980   617.41496     -919.61607      4186.7771      4335.2025    
     35990   584.08118     -918.90217      3185.6951      4339.1321    
     36000   573.57073     -918.79049      2184.2342      4344.085     
     36010   600.77782     -919.69815      956.46917      4349.7458    
     36020   630.9134      -920.67982     -555.4436       4355.7281    
     36030   588.17267     -919.62348     -1843.8451      4361.5726    
     36040   571.18615     -919.25687     -2978.2091      4366.862     
     36050   584.38654     -919.7035      -3841.7639      4371.2369    
     36060   614.9659      -920.62262     -4618.4668      4374.4087    
     36070   624.03979     -920.95134     -5122.1159      4376.1273    
     36080   580.86414     -919.83218     -5094.1643      4376.2337    
     36090   563.15065     -919.40769     -4908.3565      4374.7192    
     36100   589.25412     -920.18837     -4554.1166      4371.6392    
     36110   566.94895     -919.61195     -3464.4631      4367.1265    
     36120   555.34666     -919.31183     -2154.8797      4361.5092    
     36130   613.21579     -920.92332     -639.93845      4355.2046    
     36140   608.46283     -920.78698      1200.4466      4348.6982    
     36150   584.38541     -920.11096      2658.5976      4342.5512    
     36160   596.92262     -920.44652      3654.4935      4337.2207    
     36170   571.85012     -919.72963      4575.5014      4333.0305    
     36180   548.24555     -919.04212      5184.4128      4330.2617    
     36190   563.46568     -919.41506      5261.5674      4329.0984    
     36200   561.67788     -919.29551      5198.778       4329.5832    
     36210   581.78958     -919.7675       4942.8289      4331.7001    
     36220   652.73601     -921.63954      4447.1524      4335.3805    
     36230   631.33115     -920.95562      3607.709       4340.4789    
     36240   587.84297     -919.67511      2089.7518      4346.7336    
     36250   588.93156     -919.62036      159.73378      4353.6838    
     36260   591.4135      -919.57807     -1542.4666      4360.7423    
     36270   600.38265     -919.69069     -3029.6065      4367.3668    
     36280   616.74892     -919.98466     -4411.9205      4373.073     
     36290   603.29074     -919.43128     -5444.5293      4377.4174    
     36300   606.23464     -919.31723     -5978.3227      4380.0598    
     36310   593.56864     -918.74418     -5919.2619      4380.8212    
     36320   592.89974     -918.47631     -5745.1541      4379.692     
     36330   624.69837     -919.06972     -5160.2906      4376.7307    
     36340   630.08521     -918.89814     -3888.1571      4372.1269    
     36350   617.90596     -918.23753     -2318.7084      4366.2727    
     36360   656.21369     -918.98155     -930.4811       4359.6524    
     36370   653.14934     -918.59593      679.37643      4352.7208    
     36380   621.26266     -917.46145      2274.1123      4345.9788    
     36390   637.89448     -917.71294      3508.6249      4339.9213    
     36400   655.23078     -918.02038      4707.7209      4334.9464    
     36410   617.00837     -916.82866      6017.9797      4331.4368    
     36420   670.4746      -918.22636      6734.538       4329.7865    
     36430   729.51703     -919.83291      6684.8091      4330.2253    
     36440   710.79323     -919.36392      6075.6712      4332.7612    
     36450   674.57022     -918.47389      4670.6207      4337.2108    
     36460   633.41715     -917.47022      3005.3356      4343.1704    
     36470   618.0808      -917.17632      1196.5521      4350.1328    
     36480   649.85891     -918.1872      -641.95236      4357.5412    
     36490   625.45482     -917.63532     -2300.3669      4364.8209    
     36500   609.18664     -917.29541     -3617.3001      4371.4449    
     36510   664.01877     -918.93239     -4919.8327      4376.9706    
     36520   643.46214     -918.49551     -5975.7714      4380.9744    
     36530   577.20561     -916.77932     -6418.2211      4383.1157    
     36540   642.54762     -918.71732     -6705.2933      4383.215     
     36550   651.46774     -919.10825     -6021.9789      4381.1923    
     36560   594.33894     -917.66898     -4519.7865      4377.2472    
     36570   618.7888      -918.4811      -2991.4588      4371.8308    
     36580   699.81747     -920.88238     -1688.8146      4365.4183    
     36590   668.841       -920.20202     -68.891768      4358.4431    
     36600   662.68134     -920.22932      1336.8734      4351.3993    
     36610   619.97133     -919.24217      2508.3888      4344.735     
     36620   569.86918     -918.01689      3376.6762      4338.8146    
     36630   577.86769     -918.37114      4270.018       4333.9252    
     36640   592.5724      -918.88847      5117.9574      4330.3468    
     36650   592.91376     -918.99316      5893.6997      4328.3539    
     36660   620.40315     -919.8509       6058.129       4328.1837    
     36670   616.45998     -919.84508      5602.1346      4329.9048    
     36680   585.35273     -919.08354      4634.9824      4333.3968    
     36690   593.5585      -919.40476      3298.4562      4338.38      
     36700   588.69549     -919.35143      2023.3561      4344.4665    
     36710   565.63525     -918.77231      778.28727      4351.269     
     36720   617.88251     -920.26995     -805.14312      4358.3889    
     36730   629.91604     -920.64956     -2417.2644      4365.3368    
     36740   596.00039     -919.7553      -3683.5076      4371.6038    
     36750   623.25551     -920.56465     -4791.5582      4376.767     
     36760   616.92777     -920.45231     -5689.1343      4380.4565    
     36770   570.55006     -919.23257     -6232.0927      4382.368     
     36780   579.51467     -919.54585     -6409.5359      4382.3085    
     36790   593.1414      -919.98758     -6040.6653      4380.2029    
     36800   586.89775     -919.8769      -5070.4947      4376.1569    
     36810   596.7776      -920.21493     -3983.0964      4370.4525    
     36820   565.09068     -919.39006     -2551.5439      4363.4372    
     36830   545.55881     -918.87891     -719.77838      4355.5629    
     36840   587.68056     -920.05029      1412.1251      4347.4054    
     36850   606.36062     -920.54942      3540.0838      4339.6311    
     36860   594.39434     -920.19029      5175.0395      4332.9003    
     36870   598.47625     -920.27645      6173.7884      4327.7276    
     36880   588.04412     -919.96019      6627.9332      4324.4367    
     36890   571.69271     -919.47729      6764.8388      4323.191     
     36900   587.17857     -919.87151      6527.4538      4324.0476    
     36910   583.43016     -919.71719      6153.6002      4326.9669    
     36920   591.01832     -919.86275      5249.5617      4331.8471    
     36930   609.31599     -920.27938      3819.3031      4338.4339    
     36940   615.98895     -920.34655      2136.8574      4346.3118    
     36950   645.49237     -921.02113      220.21539      4354.9711    
     36960   653.24806     -921.07609     -2034.2576      4363.8094    
     36970   577.9067      -918.81911     -4352.0848      4372.1146    
     36980   526.08846     -917.20253     -6181.9795      4379.1456    
     36990   581.84057     -918.52897     -7170.1648      4384.2988    
     37000   586.81261     -918.40428     -7241.3636      4387.2314    
     37010   602.08387     -918.56276     -7097.2941      4387.8684    
     37020   642.73537     -919.42546     -6791.8986      4386.229     
     37030   647.16742     -919.30713     -5763.9217      4382.4077    
     37040   636.44331     -918.81109     -4296.724       4376.7086    
     37050   661.24795     -919.33579     -2895.834       4369.5766    
     37060   645.80488     -918.77515     -1354.6164      4361.4591    
     37070   618.70428     -917.92094      347.23977      4352.8447    
     37080   618.15364     -917.81469      2260.1471      4344.2727    
     37090   626.69244     -917.96346      4318.543       4336.3476    
     37100   659.4434      -918.79758      6115.4406      4329.7123    
     37110   674.59761     -919.1786       7400.9001      4324.9283    
     37120   642.48007     -918.29249      7987.1812      4322.4048    
     37130   662.92606     -918.91418      7805.8246      4322.3446    
     37140   646.59427     -918.55952      7095.152       4324.7264    
     37150   605.39342     -917.54355      6086.7529      4329.3649    
     37160   618.1105      -918.03669      4589.2986      4335.9718    
     37170   646.89688     -918.99259      2368.2616      4344.1002    
     37180   631.14012     -918.72882      167.98253      4353.0952    
     37190   598.19534     -917.98823     -1682.5649      4362.2799    
     37200   605.59267     -918.3596      -3507.4786      4371.0525    
     37210   637.36852     -919.41569     -5328.2156      4378.8157    
     37220   623.71339     -919.22709     -6727.6742      4384.9779    
     37230   600.18901     -918.76795     -7641.5378      4389.0608    
     37240   633.96476     -919.91245     -8038.3161      4390.7408    
     37250   634.3362      -920.15521     -7866.6769      4389.8602    
     37260   580.79104     -918.8946      -7186.2597      4386.449     
     37270   591.66976     -919.40081     -6196.3016      4380.6982    
     37280   614.22159     -920.21757     -4527.7785      4372.9227    
     37290   572.93443     -919.22927     -2112.8241      4363.6531    
     37300   576.31066     -919.43495      283.85869      4353.633     
     37310   599.33101     -920.15083      2351.9352      4343.6135    
     37320   587.08716     -919.85783      4499.1669      4334.2659    
     37330   600.50257     -920.2581       6350.3054      4326.2557    
     37340   591.84517     -920.0369       7787.0056      4320.1652    
     37350   555.09797     -919.02609      8816.1526      4316.4533    
     37360   592.07924     -920.0587       9104.783       4315.4454    
     37370   639.14621     -921.38445      8693.0585      4317.2604    
     37380   602.16264     -920.39979      7595.8017      4321.8046    
     37390   569.41006     -919.53768      5721.3418      4328.7691    
     37400   570.98445     -919.612        3457.5227      4337.614     
     37410   559.5522      -919.29525      1207.3533      4347.6696    
     37420   591.1248      -920.14448     -1217.6907      4358.2321    
     37430   601.20296     -920.37436     -3533.2791      4368.5418    
     37440   562.94752     -919.24812     -5392.1836      4377.859     
     37450   581.68189     -919.69164     -6918.6134      4385.5606    
     37460   610.23045     -920.40005     -8211.613       4391.1224    
     37470   597.10479     -919.9618      -9049.5368      4394.1044    
     37480   606.67165     -920.17358     -9202.583       4394.2095    
     37490   599.65933     -919.94134     -8395.566       4391.3702    
     37500   594.62461     -919.77703     -6988.4565      4385.8164    
     37510   587.6896      -919.55898     -5284.3674      4377.9808    
     37520   589.26069     -919.56726     -3287.145       4368.4045    
     37530   585.15787     -919.3957      -834.91667      4357.7339    
     37540   601.03138     -919.75491      1612.9909      4346.7361    
     37550   587.74393     -919.27865      3966.1879      4336.1875    
     37560   593.14736     -919.30396      6104.0074      4326.8253    
     37570   590.10387     -919.07528      8101.8011      4319.3249    
     37580   604.44656     -919.32195      9510.4616      4314.2973    
     37590   632.67543     -919.95427      10052.415      4312.1843    
     37600   607.11044     -919.10778      9740.784       4313.171     
     37610   592.71907     -918.5816       8803.1912      4317.1938    
     37620   664.41545     -920.43543      7225.6612      4323.9946    
     37630   641.95578     -919.6635       5301.36        4333.1263    
     37640   590.73032     -918.09709      3101.3668      4344.0198    
     37650   657.31153     -919.76463      271.26975      4355.9923    
     37660   660.62951     -919.62946     -2533.9536      4368.1775    
     37670   591.89375     -917.48446     -5122.3409      4379.677     
     37680   606.85919     -917.64006     -7635.6049      4389.6355    
     37690   656.43226     -918.71229     -9504.328       4397.2328    
     37700   649.45728     -918.21557     -10455.161      4401.8384    
     37710   625.48216     -917.28249     -10586.078      4403.1118    
     37720   632.5075      -917.23986     -9948.2533      4400.9843    
     37730   670.59227     -918.08082     -8503.6529      4395.6516    
     37740   687.14155     -918.35634     -6488.6647      4387.5691    
     37750   660.68382     -917.48399     -4151.3978      4377.3826    
     37760   650.7183      -917.10186     -1683.74        4365.8444    
     37770   666.69097     -917.45527      953.74467      4353.7508    
     37780   647.41201     -916.84292      3700.9889      4341.9451    
     37790   669.85721     -917.40879      6117.039       4331.2817    
     37800   697.74804     -918.16369      8106.8787      4322.5108    
     37810   675.8716      -917.59796      9772.582       4316.2507    
     37820   673.31512     -917.63673      10797.896      4313.0075    
     37830   702.51323     -918.64555      10772.543      4313.0918    
     37840   680.57271     -918.33206      9791.7334      4316.5101    
     37850   654.40362     -917.96727      8158.7177      4322.9905    
     37860   654.28575     -918.3685       5790.2881      4332.0464    
     37870   631.94982     -918.15073      3063.1419      4342.9752    
     37880   620.64476     -918.19278      144.64285      4354.938     
     37890   614.384       -918.30314     -2771.6056      4367.0221    
     37900   602.61395     -918.18135     -5473.1017      4378.2961    
     37910   597.83338     -918.18206     -7591.1018      4387.889     
     37920   612.98414     -918.69915     -9003.2194      4395.1003    
     37930   594.75892     -918.26821     -9557.1237      4399.4594    
     37940   636.76396     -919.51235     -9793.3781      4400.7511    
     37950   672.13057     -920.60347     -9355.4014      4398.904     
     37960   620.13315     -919.29802     -8182.1627      4394.0599    
     37970   598.53894     -918.84038     -6807.5016      4386.5868    
     37980   614.98887     -919.43586     -5050.9967      4376.9429    
     37990   605.44848     -919.29686     -2607.0203      4365.7161    
     38000   615.41601     -919.68373      169.75271      4353.6889    
     38010   621.56683     -919.94899      3158.3416      4341.7491    
     38020   604.65497     -919.56192      5881.2599      4330.8255    
     38030   585.96112     -919.11135      7945.8853      4321.754     
     38040   612.82795     -919.92993      9213.9673      4315.158     
     38050   589.94435     -919.37962      10071.183      4311.4305    
     38060   567.44223     -918.84684      10089.438      4310.8133    
     38070   598.17516     -919.80313      9088.886       4313.3044    
     38080   577.93294     -919.35014      7626.1376      4318.6164    
     38090   546.79743     -918.58246      5992.418       4326.3144    
     38100   588.94899     -919.82992      4071.1182      4335.8974    
     38110   627.5699      -920.96763      1963.8168      4346.7801    
     38120   607.50714     -920.47197     -311.51489      4358.3058    
     38130   598.10376     -920.26075     -2965.027       4369.7451    
     38140   614.07371     -920.74349     -5623.843       4380.2555    
     38150   605.69563     -920.54882     -7720.8575      4388.9914    
     38160   592.25065     -920.22361     -9300.6129      4395.2617    
     38170   565.37611     -919.53205     -10266.7        4398.5505    
     38180   562.05091     -919.50319     -10370.36       4398.5515    
     38190   540.77537     -918.97251     -9424.4024      4395.2444    
     38200   575.35387     -919.98695     -7976.4816      4388.9292    
     38210   598.78829     -920.68146     -5883.3147      4380.104     
     38220   583.42329     -920.287       -3521.3911      4369.4507    
     38230   572.14103     -919.98397     -1025.9709      4357.7416    
     38240   572.59169     -919.97254      1613.175       4345.7852    
     38250   575.08165     -919.98251      4259.2511      4334.4136    
     38260   557.21315     -919.39209      6814.2086      4324.4491    
     38270   573.73179     -919.72763      8702.2348      4316.653     
     38280   605.24379     -920.45914      9862.5667      4311.5877    
     38290   607.3941      -920.37338      10568.655      4309.5968    
     38300   615.21291     -920.45694      10580.693      4310.872     
     38310   633.13571     -920.83198      9537.9354      4315.397     
     38320   631.57479     -920.67756      7503.3056      4322.8498    
     38330   605.24621     -919.83992      4804.8821      4332.6105    
     38340   543.10368     -917.99049      2180.849       4343.8625    
     38350   572.06754     -918.62892     -524.40395      4355.773     
     38360   619.90479     -919.72659     -3103.3657      4367.493     
     38370   606.44579     -919.09383     -5450.0982      4378.1969    
     38380   598.33547     -918.60704     -7450.2362      4387.1319    
     38390   645.66893     -919.65892     -8891.6227      4393.6568    
     38400   625.18076     -918.85078     -9450.9223      4397.3202    
     38410   581.77198     -917.45429     -9517.892       4397.9397    
     38420   621.62884     -918.39542     -9145.7596      4395.5108    
     38430   642.41799     -918.82652     -7932.3938      4390.1906    
     38440   617.29273     -918.01606     -5798.9759      4382.4078    
     38450   636.92343     -918.46818     -3597.7769      4372.8495    
     38460   675.88747     -919.47125     -1397.4017      4362.2455    
     38470   652.23296     -918.76017      1153.9812      4351.3239    
     38480   634.18144     -918.22578      3615.3237      4340.8819    
     38490   627.50762     -918.01815      5730.2676      4331.6788    
     38500   614.73163     -917.64918      7562.2774      4324.3581    
     38510   662.81499     -918.99407      8782.3736      4319.45      
     38520   677.07758     -919.44638      9366.1958      4317.302     
     38530   664.11645     -919.20272      9007.0064      4318.0564    
     38540   652.88491     -919.05912      7842.5827      4321.5815    
     38550   602.01524     -917.83764      6366.6261      4327.5134    
     38560   576.67719     -917.31265      4477.3818      4335.3801    
     38570   607.68495     -918.33578      2068.708       4344.5808    
     38580   613.15211     -918.63425     -246.99555      4354.3732    
     38590   619.10982     -918.93467     -2241.6921      4364.0282    
     38600   634.30395     -919.48866     -4024.9326      4372.9085    
     38610   620.13349     -919.22623     -5616.5441      4380.4465    
     38620   610.98587     -919.0965      -6966.8346      4386.137     
     38630   629.37419     -919.7338      -7705.4091      4389.5695    
     38640   619.01199     -919.57743     -7744.0173      4390.5284    
     38650   611.82243     -919.50843     -7477.3028      4389.0124    
     38660   617.45163     -919.79164     -6782.6824      4385.1416    
     38670   606.56083     -919.60706     -5476.2884      4379.1755    
     38680   606.51498     -919.70633     -3950.3652      4371.5519    
     38690   610.46077     -919.90188     -2308.1055      4362.7814    
     38700   552.54673     -918.35063     -216.95119      4353.4174    
     38710   529.80151     -917.73174      1961.7832      4344.1196    
     38720   580.08169     -919.10186      3988.2627      4335.5614    
     38730   623.22603     -920.25472      6152.3616      4328.3773    
     38740   660.64457     -921.26515      7497.275       4323.1835    
     38750   650.74967     -921.00204      8122.5747      4320.3701    
     38760   597.55326     -919.5672       8252.1883      4320.1024    
     38770   598.07561     -919.63873      7524.8696      4322.3755    
     38780   586.48177     -919.3766       6173.2958      4326.9461    
     38790   542.34898     -918.19692      4410.8871      4333.3788    
     38800   564.53826     -918.83188      2596.5864      4341.1211    
     38810   609.7631      -920.08256      959.19124      4349.6024    
     38820   603.09932     -919.88011     -610.32305      4358.3013    
     38830   643.70272     -920.99144     -2609.5677      4366.7034    
     38840   646.63583     -921.06979     -4484.8488      4374.192     
     38850   569.78075     -918.94614     -5765.3577      4380.1906    
     38860   547.16985     -918.32037     -6759.3425      4384.2938    
     38870   595.40819     -919.65167     -7513.3263      4386.1989    
     38880   583.23127     -919.30181     -7172.3715      4385.721     
     38890   603.69321     -919.86372     -6263.9018      4382.9837    
     38900   638.01058     -920.81757     -5199.1822      4378.3023    
     38910   600.14617     -919.77906     -3861.6076      4372.0533    
     38920   583.54732     -919.33201     -2268.0801      4364.691     
     38930   588.01216     -919.45611     -639.53513      4356.7342    
     38940   571.32131     -918.9724       1075.0852      4348.7111    
     38950   596.50805     -919.63124      2844.9833      4341.1613    
     38960   605.89493     -919.83501      4532.3619      4334.6229    
     38970   589.69285     -919.31974      5962.1471      4329.5986    
     38980   638.72297     -920.61635      6628.9124      4326.4892    
     38990   628.00681     -920.26624      6612.1731      4325.4689    
     39000   557.27325     -918.26337      6285.1562      4326.5136    
     39010   583.47233     -918.94412      5512.143       4329.4875    
     39020   631.69401     -920.21616      4521.0199      4334.1326    
     39030   584.51698     -918.8311       3601.7295      4340.1339    
     39040   625.3504      -919.88265      2060.8781      4347.1681    
     39050   670.82787     -921.04698      221.0153       4354.7546    
     39060   620.85113     -919.57236     -1537.3514      4362.319     
     39070   581.62755     -918.40183     -3344.9413      4369.301     
     39080   592.57453     -918.60886     -4963.4483      4375.1386    
     39090   595.59211     -918.5778      -5922.5397      4379.3437    
     39100   624.31646     -919.25577     -6399.3513      4381.6233    
     39110   618.24334     -918.971       -6207.4092      4381.8591    
     39120   594.61264     -918.20841     -5699.7165      4380.13      
     39130   629.4462      -919.0703      -4960.0163      4376.6308    
     39140   630.64326     -918.99755     -3732.4314      4371.6365    
     39150   614.63592     -918.45557     -2188.7576      4365.5571    
     39160   642.84918     -919.14356     -605.18619      4358.897     
     39170   624.35225     -918.538        905.63568      4352.1617    
     39180   603.955       -917.88575      2455.1198      4345.8327    
     39190   652.55045     -919.14967      3824.6706      4340.3797    
     39200   673.60643     -919.66598      4764.7491      4336.2033    
     39210   652.67794     -919.05771      5360.7017      4333.5771    
     39220   634.42627     -918.56262      5614.6531      4332.6576    
     39230   622.21999     -918.26267      5358.841       4333.4902    
     39240   634.1124      -918.65763      4652.0849      4335.9733    
     39250   633.88114     -918.74283      3598.2149      4339.8657    
     39260   623.53005     -918.57377      2399.7342      4344.828     
     39270   620.10244     -918.61692      905.49904      4350.472     
     39280   620.5679      -918.79022     -684.62683      4356.3256    
     39290   586.82332     -918.02191     -1874.1673      4361.8994    
     39300   611.89847     -918.89552     -2805.001       4366.8163    
     39310   627.80747     -919.54135     -3534.7923      4370.7888    
     39320   595.62862     -918.8658      -3915.6479      4373.6011    
     39330   608.39122     -919.44621     -4191.5115      4375.1414    
     39340   629.29983     -920.27147     -4563.4863      4375.3316    
     39350   609.31731     -919.9726      -4499.3046      4374.0901    
     39360   596.38243     -919.85926     -4087.869       4371.4565    
     39370   599.34261     -920.1761      -3315.3249      4367.586     
     39380   564.64727     -919.41379     -2140.4978      4362.7454    
     39390   574.63476     -919.85395     -882.02974      4357.3119    
     39400   588.77926     -920.38003      525.74741      4351.6973    
     39410   582.08942     -920.29937      1895.1083      4346.3408    
     39420   601.4006      -920.92213      2804.3244      4341.6541    
     39430   589.81001     -920.67574      3347.3189      4337.9109    
     39440   554.5987      -919.75337      3892.6171      4335.2751    
     39450   568.13853     -920.1648       4180.862       4333.8871    
     39460   574.10436     -920.34767      4199.396       4333.8191    
     39470   572.29857     -920.30365      3912.92        4335.0577    
     39480   562.25528     -920.01847      3283.6067      4337.4948    
     39490   532.54318     -919.1679       2573.7473      4340.9276    
     39500   539.516       -919.308        1759.6092      4345.1242    
     39510   612.71437     -921.26155      751.65972      4349.8172    
     39520   604.66384     -920.94957      145.08122      4354.7065    
     39530   604.04033     -920.85371     -611.65836      4359.5814    
     39540   636.74452     -921.68852     -1763.0114      4364.1972    
     39550   599.39029     -920.5892      -2797.0557      4368.2094    
     39560   563.81969     -919.54423     -3746.3138      4371.2946    
     39570   601.5968      -920.52987     -4730.949       4373.1543    
     39580   569.22303     -919.56106     -4868.5273      4373.5208    
     39590   532.04799     -918.45456     -4425.5228      4372.3593    
     39600   569.28958     -919.39118     -3787.2962      4369.8209    
     39610   613.11        -920.48834     -2945.0944      4366.1281    
     39620   569.43078     -919.14951     -1709.328       4361.5755    
     39630   579.56118     -919.30326     -800.11576      4356.538     
     39640   602.41854     -919.79145      220.01729      4351.3278    
     39650   581.223       -919.05117      1604.2735      4346.2757    
     39660   604.15304     -919.5328       3092.2629      4341.8023    
     39670   644.73642     -920.50284      4256.9845      4338.3519    
     39680   648.68609     -920.48003      4785.206       4336.2628    
     39690   631.06059     -919.89669      4842.4508      4335.6872    
     39700   606.58479     -919.15202      4346.5669      4336.6208    
     39710   587.10119     -918.55831      3551.0524      4338.9001    
     39720   603.66996     -918.96738      2634.3279      4342.266     
     39730   623.79507     -919.47863      1688.0512      4346.4257    
     39740   609.5939      -919.04691      933.65294      4351.0827    
     39750   612.75807     -919.10651      65.18743       4355.9887    
     39760   639.29858     -919.82509     -1358.6028      4360.8554    
     39770   605.72471     -918.88599     -2707.0255      4365.2522    
     39780   575.56962     -918.04272     -3685.3878      4368.7619    
     39790   625.8763      -919.43327     -4201.1405      4371.0858    
     39800   612.18067     -919.05589     -4034.6555      4372.0779    
     39810   558.28724     -917.56232     -3469.9498      4371.7972    
     39820   639.03379     -919.80635     -3122.5532      4370.4155    
     39830   673.79871     -920.79158     -2465.3336      4368.0744    
     39840   604.23691     -918.90076     -1630.0445      4364.9915    
     39850   619.54076     -919.36831     -1363.8898      4361.4155    
     39860   640.27716     -919.99368     -1008.4781      4357.4566    
     39870   560.22057     -917.81152      93.021074      4353.2525    
     39880   596.56875     -918.84609      1124.6765      4349.1252    
     39890   655.39508     -920.50237      2191.7436      4345.4025    
     39900   608.76067     -919.24288      3395.155       4342.4179    
     39910   603.06525     -919.12478      3966.4338      4340.5162    
     39920   652.78971     -920.55873      3819.1656      4339.8599    
     39930   604.59257     -919.28797      3555.7237      4340.4103    
     39940   593.27859     -919.04622      2749.3495      4342.0587    
     39950   594.57578     -919.15174      1820.1778      4344.5567    
     39960   550.29631     -917.97567      1124.3598      4347.617     
     39970   580.87773     -918.85959      530.94838      4351.0137    
     39980   636.10363     -920.4217      -7.7038715      4354.5571    
     39990   617.04474     -919.93159     -555.52603      4358.0759    
     40000   605.36082     -919.65645     -1217.9003      4361.3946    
     40010   622.17013     -920.18085     -2066.2458      4364.3031    
     40020   602.6643      -919.70463     -2717.5317      4366.5476    
     40030   602.96799     -919.78522     -3131.5434      4367.9258    
     40040   614.55781     -920.1894      -3334.8306      4368.3101    
     40050   575.25961     -919.18595     -3049.8823      4367.6527    
     40060   558.47347     -918.7968      -2540.751       4366.0457    
     40070   599.11829     -919.99522     -2077.608       4363.6499    
     40080   599.16651     -920.06527     -1451.3279      4360.6264    
     40090   595.69774     -920.04084     -646.90144      4357.1803    
     40100   609.01037     -920.48752      81.599785      4353.5613    
     40110   589.58859     -920.03085      827.55413      4350.0042    
     40120   577.57385     -919.77812      1494.5061      4346.7394    
     40130   589.24649     -920.18412      1866.692       4343.9665    
     40140   558.07953     -919.39507      2371.2116      4341.8107    
     40150   552.27898     -919.29737      2881.533       4340.4194    
     40160   594.66261     -920.52906      3078.0666      4339.9372    
     40170   601.29961     -920.77258      3191.0356      4340.427     
     40180   581.3716      -920.28399      3096.8452      4341.9159    
     40190   599.32833     -920.85504      2361.4655      4344.3543    
     40200   581.90104     -920.44659      1379.6928      4347.5214    
     40210   570.56408     -920.20689      391.72086      4351.1113    
     40220   561.6038      -920.0243      -413.26319      4354.8171    
     40230   559.87592     -920.02952     -1221.5103      4358.3784    
     40240   577.33292     -920.55474     -1937.4648      4361.5436    
     40250   593.61467     -921.04229     -2416.8694      4364.0908    
     40260   578.51737     -920.65728     -2696.3448      4365.8704    
     40270   557.76709     -920.10866     -2964.7126      4366.7907    
     40280   550.25014     -919.91014     -3133.0814      4366.774     
     40290   559.38893     -920.15217     -2937.505       4365.7786    
     40300   579.63287     -920.67886     -2322.6937      4363.8745    
     40310   602.79145     -921.26988     -1661.7547      4361.2499    
     40320   576.76331     -920.48263     -878.14743      4358.1238    
     40330   556.29954     -919.83415     -101.53823      4354.743     
     40340   570.05049     -920.10532      599.83185      4351.3532    
     40350   597.48177     -920.72621      1212.972       4348.172     
     40360   574.11649     -919.91409      2028.392       4345.4036    
     40370   583.47984     -919.99679      2477.5975      4343.2806    
     40380   608.17002     -920.48147      2580.4237      4341.9444    
     40390   604.88971     -920.18376      2536.1908      4341.4246    
     40400   562.81037     -918.81255      2710.395       4341.7179    
     40410   594.21349     -919.47935      2504.1703      4342.8549    
     40420   605.67138     -919.57744      2133.1472      4344.7779    
     40430   565.40834     -918.25166      1786.1017      4347.3725    
     40440   621.9635      -919.61783      1279.495       4350.5222    
     40450   698.83641     -921.5493       587.748        4354.0684    
     40460   655.25841     -920.18779     -62.496586      4357.7998    
     40470   598.26129     -918.50548     -980.74211      4361.501     
     40480   615.99263     -918.91342     -2456.3851      4364.8689    
     40490   593.42467     -918.20619     -3478.6304      4367.4676    
     40500   573.6371      -917.58154     -3721.8586      4368.9805    
     40510   588.17144     -917.9059      -3546.3638      4369.3184    
     40520   597.62307     -918.08252     -2861.3316      4368.5502    
     40530   641.88278     -919.22965     -2348.8205      4366.8728    
     40540   685.12821     -920.3698      -1741.7578      4364.4656    
     40550   663.27663     -919.7468      -926.09682      4361.5263    
     40560   636.44805     -919.02321     -324.00651      4358.3043    
     40570   622.56367     -918.68315     -68.296851      4354.9864    
     40580   575.99171     -917.43765      543.19576      4351.6753    
     40590   607.8417      -918.36682      1377.3516      4348.5558    
     40600   641.65695     -919.35753      2408.02        4345.8932    
     40610   646.71858     -919.57396      3166.6837      4343.9974    
     40620   678.20033     -920.56932      3076.0843      4343.0835    
     40630   652.5593      -920.03393      2614.1411      4343.1374    
     40640   567.61543     -917.87187      2040.7352      4344.0187    
     40650   551.15768     -917.59523      1285.0279      4345.5376    
     40660   589.99291     -918.85288      968.06717      4347.4765    
     40670   580.55487     -918.77026      980.08425      4349.7346    
     40680   606.4412      -919.67392      629.41762      4352.2959    
     40690   642.21173     -920.88074      63.155241      4355.0535    
     40700   606.78175     -920.13267     -463.00826      4357.8378    
     40710   597.72784     -920.12011     -1353.9294      4360.4675    
     40720   598.89189     -920.39622     -2158.1974      4362.6732    
     40730   545.48113     -919.13192     -2460.7981      4364.2143    
     40740   554.32802     -919.55723     -2720.9883      4364.9769    
     40750   599.84689     -920.98466     -2652.7758      4364.8886    
     40760   575.01089     -920.43763     -2218.9584      4363.9741    
     40770   596.36215     -921.15205     -1969.6595      4362.3555    
     40780   607.97608     -921.58711     -1819.5055      4360.1152    
     40790   531.18106     -919.53753     -1099.2225      4357.3247    
     40800   533.15855     -919.63366     -357.78992      4354.1941    
     40810   584.70549     -921.0741       283.52476      4350.9563    
     40820   578.77341     -920.90044      1049.9381      4347.8221    
     40830   589.91157     -921.19468      1605.3571      4345.0212    
     40840   585.75343     -921.06114      2006.2913      4342.7298    
     40850   527.22299     -919.40652      2448.3186      4341.0817    
     40860   548.31389     -919.94656      2407.0016      4340.1942    
     40870   572.03875     -920.54171      2164.6992      4340.0643    
     40880   517.09514     -918.94115      2269.4903      4340.6321    
     40890   543.79132     -919.59379      2257.7711      4341.9155    
     40900   626.60717     -921.78435      1941.2926      4343.9059    
     40910   606.10731     -921.11302      1791.2494      4346.522     
     40920   603.92166     -920.97254      1066.9375      4349.6945    
     40930   607.57681     -921.00013      124.20605      4353.2112    
     40940   587.71093     -920.38106     -813.39569      4356.7764    
     40950   558.25225     -919.49192     -1387.7183      4360.1083    
     40960   566.65531     -919.64123     -2235.933       4362.9984    
     40970   580.50641     -919.92448     -2960.437       4365.1917    
     40980   575.03822     -919.66176     -3152.7162      4366.4653    
     40990   592.34424     -920.02566     -3055.4956      4366.7497    
     41000   604.24234     -920.23522     -2856.9653      4366.0694    
     41010   584.36471     -919.56624     -2511.1076      4364.4895    
     41020   559.23852     -918.74979     -1970.365       4362.1218    
     41030   584.11281     -919.30867     -1320.0268      4359.1352    
     41040   625.64105     -920.31522     -539.54111      4355.7375    
     41050   602.72133     -919.53702      443.69123      4352.1784    
     41060   587.2921      -918.97674      1337.044       4348.7615    
     41070   634.80792     -920.16309      1956.3599      4345.7619    
     41080   648.41232     -920.41905      2503.0166      4343.3815    
     41090   588.56324     -918.66061      2992.9446      4341.7953    
     41100   588.77927     -918.58179      3117.1512      4341.1435    
     41110   612.58054     -919.1519       3182.8241      4341.4786    
     41120   635.30625     -919.69836      2800.6581      4342.8076    
     41130   651.5861      -920.08478      2225.575       4345.0254    
     41140   643.98172     -919.83587      1287.5054      4347.947     
     41150   610.89703     -918.90134      334.711        4351.2916    
     41160   585.63857     -918.19062     -663.00867      4354.7552    
     41170   560.44875     -917.47121     -1389.2613      4358.0327    
     41180   567.31172     -917.62151     -1781.193       4360.894     
     41190   628.18908     -919.25418     -2092.9336      4363.2049    
     41200   651.09221     -919.8344      -2267.5648      4364.8669    
     41210   622.0812      -918.99286     -2329.9016      4365.8213    
     41220   632.37466     -919.26037     -2425.3093      4366.0407    
     41230   650.04141     -919.75087     -2365.3124      4365.4982    
     41240   629.76158     -919.21573     -1929.0244      4364.2189    
     41250   616.76975     -918.91089     -1564.2747      4362.3255    
     41260   612.60168     -918.87548     -1271.3748      4359.9331    
     41270   625.55149     -919.34767     -830.2211       4357.1407    
     41280   625.9262      -919.51423     -23.420923      4354.0958    
     41290   608.07474     -919.21897      625.91647      4351.0345    
     41300   589.44812     -918.9336       1245.4442      4348.1712    
     41310   589.61224     -919.19046      1746.5704      4345.6956    
     41320   603.01643     -919.83553      2166.5134      4343.7685    
     41330   578.76084     -919.43969      2517.8361      4342.5217    
     41340   567.85158     -919.39188      2641.2707      4342.0648    
     41350   598.97529     -920.49933      2338.6856      4342.4333    
     41360   597.33827     -920.68712      1903.2385      4343.5427    
     41370   568.58686     -920.0966       1580.6429      4345.2669    
     41380   570.71873     -920.32959      1121.0314      4347.5001    
     41390   585.68352     -920.89828      453.88798      4350.0981    
     41400   558.90682     -920.27879     -118.5766       4352.8636    
     41410   573.57616     -920.78595     -912.92217      4355.6008    
     41420   568.26504     -920.71651     -1479.8576      4358.0756    
     41430   539.59408     -919.97256     -1781.4828      4360.1054    
     41440   567.01556     -920.75986     -2051.1749      4361.5841    
     41450   607.04412     -921.88482     -2234.0531      4362.4241    
     41460   558.78018     -920.5501      -1975.7074      4362.5768    
     41470   542.347       -920.08378     -1904.1714      4362.0999    
     41480   577.47076     -921.02513     -1933.0531      4361.018     
     41490   569.79376     -920.75842     -1650.6898      4359.3313    
     41500   548.07874     -920.08569     -1316.6569      4357.1187    
     41510   561.3872      -920.36165     -866.75873      4354.4855    
     41520   561.34179     -920.23691      34.52978       4351.584     
     41530   573.85135     -920.436        1005.2426      4348.6862    
     41540   582.24394     -920.49587      1843.1094      4346.0956    
     41550   582.74353     -920.32108      2294.9912      4344.0699    
     41560   606.13283     -920.7711       2346.2503      4342.7531    
     41570   585.21341     -919.98771      2334.3154      4342.1729    
     41580   545.6199      -918.69216      2511.0554      4342.3394    
     41590   590.63612     -919.73577      2217.9028      4343.2903    
     41600   642.91569     -920.96696      1740.1545      4344.9462    
     41610   606.60053     -919.76482      1869.7108      4347.1897    
     41620   596.67854     -919.33081      1632.0777      4350.034     
     41630   640.47916     -920.40393      663.81268      4353.4024    
     41640   616.2169      -919.60999     -582.05752      4357.0051    
     41650   588.65298     -918.75089     -1850.0991      4360.4554    
     41660   595.63246     -918.85977     -2909.748       4363.3512    
     41670   573.92691     -918.17615     -3150.3224      4365.3719    
     41680   569.27386     -917.96766     -3108.589       4366.4126    
     41690   621.53877     -919.33962     -2949.9014      4366.4746    
     41700   633.7659      -919.61292     -2352.3265      4365.6137    
     41710   624.52463     -919.31473     -1549.3289      4364.007     
     41720   658.94447     -920.25521     -1223.7619      4361.8868    
     41730   631.2695      -919.49655     -955.20012      4359.3698    
     41740   607.73876     -918.87026     -569.59393      4356.5395    
     41750   605.13751     -918.82813     -116.32406      4353.5152    
     41760   595.02099     -918.57339      721.39384      4350.4512    
     41770   615.8565      -919.17582      1570.7962      4347.6001    
     41780   635.67516     -919.7584       1896.9965      4345.2147    
     41790   591.05875     -918.56096      2306.4775      4343.4225    
     41800   566.42895     -917.90925      2587.4025      4342.3469    
     41810   635.19151     -919.84602      2651.1043      4342.0805    
     41820   653.55464     -920.3995       2762.1213      4342.6576    
     41830   601.89252     -919.02878      2701.227       4344.1154    
     41840   603.26344     -919.1337       2006.1002      4346.4284    
     41850   647.87567     -920.44852      1099.6744      4349.3995    
     41860   614.013       -919.59812      515.97724      4352.7674    
     41870   586.40913     -918.92244     -404.85227      4356.3271    
     41880   587.28201     -919.02833     -1631.7408      4359.7909    
     41890   576.55704     -918.7976      -2622.3465      4362.7826    
     41900   597.92835     -919.44979     -2986.7579      4364.9925    
     41910   616.03371     -920.0139      -2962.2715      4366.2862    
     41920   591.33152     -919.39422     -2901.2805      4366.6536    
     41930   586.40857     -919.32097     -2905.1963      4366.1015    
     41940   615.9204      -920.20749     -2703.9856      4364.6255    
     41950   581.92594     -919.33205     -1909.3613      4362.2938    
     41960   584.1123      -919.45487     -1052.1807      4359.3373    
     41970   642.31228     -921.14072     -580.21573      4356.0093    
     41980   606.55002     -920.23554      115.61704      4352.4745    
     41990   556.37403     -918.93339      1141.873       4348.9547    
     42000   582.72091     -919.75089      1943.9589      4345.7588    
     42010   608.46025     -920.56195      2515.0526      4343.1439    
     42020   590.4254      -920.17936      2827.2609      4341.2946    
     42030   585.47273     -920.18785      2841.4081      4340.3163    
     42040   571.08772     -919.96472      2814.7095      4340.2298    
     42050   567.17397     -920.06067      2722.3736      4341.0383    
     42060   593.87963     -921.05285      2225.2922      4342.7127    
     42070   564.86357     -920.53879      1585.5662      4345.1178    
     42080   519.15453     -919.55262      840.52552      4348.0624    
     42090   552.28513     -920.74334     -41.620775      4351.3165    
     42100   558.96374     -921.19139     -800.50629      4354.6147    
     42110   531.82615     -920.66427     -1540.9266      4357.7116    
     42120   539.10668     -921.05164     -2171.1849      4360.3698    
     42130   551.40793     -921.54404     -2423.6885      4362.3903    
     42140   559.82509     -921.89844     -2544.6437      4363.6726    
     42150   580.53983     -922.57585     -2680.1686      4364.1648    
     42160   550.67065     -921.82938     -2714.0079      4363.8152    
     42170   511.20157     -920.78272     -2667.7407      4362.5996    
     42180   549.10779     -921.85111     -2670.1316      4360.5131    
     42190   565.60904     -922.29862     -2152.3115      4357.5596    
     42200   490.93224     -920.18583     -981.1982       4353.8982    
     42210   488.02711     -920.02778      7.3882273      4349.8639    
     42220   542.17639     -921.39629      1063.8776      4345.7746    
     42230   552.85715     -921.51057      2224.0626      4341.9655    
     42240   570.53144     -921.79563      2943.666       4338.7898    
     42250   556.48534     -921.18515      3324.8832      4336.4899    
     42260   554.47563     -920.90706      3556.1724      4335.2054    
     42270   559.19666     -920.81163      3613.2051      4335.023     
     42280   552.81355     -920.4131       3337.6631      4335.9766    
     42290   544.94623     -919.98506      3068.1419      4338.0158    
     42300   576.52926     -920.66329      2601.815       4341.069     
     42310   572.66042     -920.37087      1910.2133      4345.0123    
     42320   575.34054     -920.28506      1006.3827      4349.6497    
     42330   626.08173     -921.54933     -228.03698      4354.7051    
     42340   622.69154     -921.33478     -1427.7508      4359.8087    
     42350   577.77076     -919.99567     -2583.5967      4364.5755    
     42360   551.51763     -919.18105     -3690.159       4368.6285    
     42370   550.89648     -919.06874     -4618.7359      4371.5932    
     42380   546.28465     -918.83123     -4711.8257      4373.1672    
     42390   600.57554     -920.22038     -4469.3381      4373.2688    
     42400   621.04393     -920.66977     -3998.8742      4371.9423    
     42410   601.37731     -920.0236      -3434.8876      4369.3031    
     42420   611.14681     -920.20882     -2742.1363      4365.5053    
     42430   603.16298     -919.90785     -1821.6418      4360.7477    
     42440   561.9791      -918.68637     -725.43663      4355.3024    
     42450   553.36676     -918.35637      527.83974      4349.5035    
     42460   576.35374     -918.87652      2102.0517      4343.747     
     42470   619.97617     -919.94874      3714.0296      4338.5257    
     42480   668.27364     -921.15524      4881.6133      4334.3452    
     42490   631.58911     -920.0322       5815.7409      4331.6108    
     42500   618.56423     -919.60173      5975.3177      4330.633     
     42510   621.8766      -919.64175      5375.4701      4331.5107    
     42520   621.30553     -919.59251      4458.7903      4334.1186    
     42530   580.59381     -918.43622      3510.9038      4338.2266    
     42540   597.56014     -918.87869      2171.8473      4343.5698    
     42550   634.18613     -919.85909      563.5176       4349.7661    
     42560   612.57454     -919.22668     -945.93178      4356.3432    
     42570   574.09898     -918.12643     -2534.0134      4362.8208    
     42580   554.20649     -917.52454     -3888.5975      4368.6942    
     42590   582.82383     -918.24423     -4821.8938      4373.51      
     42600   641.35023     -919.77969     -5287.8008      4376.9303    
     42610   638.75185     -919.62622     -5251.7721      4378.7589    
     42620   640.15951     -919.60864     -5074.2401      4378.9454    
     42630   668.26477     -920.3587      -4744.0869      4377.5004    
     42640   657.57617     -920.06925     -4147.2023      4374.4849    
     42650   616.83481     -918.98122     -3380.6237      4370.0456    
     42660   588.66194     -918.25739     -2513.4968      4364.389     
     42670   592.13265     -918.41382     -1291.9112      4357.7677    
     42680   602.96415     -918.77412      563.08486      4350.5594    
     42690   604.84848     -918.88789      2519.4654      4343.3281    
     42700   622.80763     -919.45991      4169.2945      4336.6865    
     42710   644.58006     -920.16934      5348.6221      4331.1702    
     42720   618.03676     -919.58242      6074.2993      4327.1839    
     42730   554.61524     -917.98789      6384.1557      4324.9989    
     42740   579.94069     -918.86709      6281.8122      4324.7648    
     42750   588.48515     -919.29669      5974.9215      4326.5163    
     42760   585.65737     -919.42007      5344.0014      4330.2169    
     42770   619.46556     -920.5776       4209.3514      4335.7266    
     42780   630.41252     -921.1241       2632.486       4342.7454    
     42790   597.81779     -920.46492      933.92614      4350.8335    
     42800   595.58886     -920.63428     -1249.766       4359.4669    
     42810   571.756       -920.17815     -3495.3993      4367.9717    
     42820   533.80548     -919.28138     -5361.8846      4375.6233    
     42830   553.99152     -919.95846     -6855.51        4381.7789    
     42840   584.86649     -920.91422     -7723.7289      4385.9067    
     42850   584.77664     -921.00477     -7907.1598      4387.6621    
     42860   581.91898     -921.01975     -7748.349       4386.9048    
     42870   550.22317     -920.2253      -7048.7042      4383.6285    
     42880   543.13995     -920.0948      -5885.6063      4377.9985    
     42890   552.07673     -920.38358     -4244.0148      4370.3455    
     42900   528.5395      -919.73556     -2143.2279      4361.1631    
     42910   541.65773     -920.06074      280.48773      4351.1036    
     42920   622.19347     -922.21712      2598.9539      4340.9201    
     42930   614.035       -921.89142      5028.4324      4331.3642    
     42940   553.1753      -920.10132      7029.5818      4323.2006    
     42950   555.3792      -920.05051      8231.0346      4317.0731    
     42960   569.37065     -920.30773      8944.9083      4313.4028    
     42970   568.03028     -920.1299       9385.7299      4312.4647    
     42980   573.35789     -920.13333      9189.7808      4314.439     
     42990   592.56097     -920.51404      8049.0822      4319.3183    
     43000   627.35096     -921.31976      6205.0714      4326.8186    
     43010   617.07966     -920.87272      3918.0405      4336.4267    
     43020   546.28714     -918.74736      1386.4273      4347.4709    
     43030   561.58779     -918.98833     -1517.8044      4359.166     
     43040   595.54916     -919.69751     -4209.2681      4370.6055    
     43050   575.10862     -918.87859     -6311.7609      4380.9169    
     43060   599.77048     -919.31615     -7968.4307      4389.3805    
     43070   637.6113      -920.13189     -9250.9113      4395.408     
     43080   610.13923     -919.18064     -9788.0146      4398.5485    
     43090   614.52314     -919.17098     -9827.4004      4398.566     
     43100   622.47486     -919.3057      -9054.8002      4395.4209    
     43110   592.15183     -918.41627     -7741.8266      4389.3265    
     43120   601.77437     -918.65972     -6023.4476      4380.6853    
     43130   611.48316     -918.91086     -3722.2899      4370.0496    
     43140   613.59082     -918.95018     -795.49618      4358.162     
     43150   627.14532     -919.29922      2264.6789      4345.9451    
     43160   649.291       -919.8861       4945.1737      4334.3622    
     43170   645.70247     -919.77152      7057.806       4324.2579    
     43180   617.76105     -918.99896      8705.7774      4316.2986    
     43190   582.61326     -918.03528      10033.319      4311.0077    
     43200   587.97019     -918.20164      10490.585      4308.788     
     43210   627.15727     -919.32501      10142.232      4309.7986    
     43220   625.14382     -919.33126      9423.8505      4313.9701    
     43230   632.47021     -919.62468      7995.8792      4321.1023    
     43240   639.3426      -919.92697      5698.3402      4330.7778    
     43250   600.97111     -918.97424      3057.8159      4342.3249    
     43260   596.28547     -918.93752      104.78842      4354.9274    
     43270   606.01407     -919.27792     -2959.0656      4367.6596    
     43280   576.82663     -918.50917     -5718.2135      4379.549     
     43290   618.93801     -919.70707     -8038.0022      4389.6899    
     43300   636.85078     -920.24874     -9635.4898      4397.3175    
     43310   576.27196     -918.62933     -10587.268      4401.8861    
     43320   603.04504     -919.45354     -11097.049      4403.0577    
     43330   639.33523     -920.5783      -10660.558      4400.6704    
     43340   581.29618     -919.11301     -9161.2681      4394.8671    
     43350   551.34278     -918.42419     -7251.3854      4386.119     
     43360   582.91705     -919.42687     -5085.2944      4375.0541    
     43370   593.57404     -919.82976     -2421.2428      4362.393     
     43380   592.87593     -919.89309      764.26738      4349.0035    
     43390   602.91921     -920.23352      4073.2235      4335.8931    
     43400   572.56221     -919.42756      7281.5038      4324.0986    
     43410   603.23485     -920.3071       9497.9894      4314.5825    
     43420   638.09088     -921.32862      10751.498      4308.016     
     43430   596.93843     -920.27853      11443.887      4304.7811    
     43440   593.29978     -920.3093       11052.397      4305.0648    
     43450   583.58773     -920.2053       9847.3983      4308.7559    
     43460   541.9927      -919.22722      7924.7435      4315.4891    
     43470   536.97471     -919.25305      5714.904       4324.6971    
     43480   550.80028     -919.78346      3287.2747      4335.7015    
     43490   537.83552     -919.54138      1046.5352      4347.771     
     43500   560.02836     -920.24563     -1571.7904      4360.1812    
     43510   597.21318     -921.34608     -4315.8937      4372.1052    
     43520   599.10236     -921.46557     -6639.8073      4382.6737    
     43530   587.88979     -921.23257     -8473.148       4391.1302    
     43540   596.72465     -921.58109     -9871.2117      4396.8703    
     43550   571.31671     -921.00946     -10640.244      4399.442     
     43560   530.48849     -920.02672     -10588.832      4398.6033    
     43570   512.18188     -919.66673     -9670.1299      4394.3826    
     43580   537.21647     -920.49963     -8062.7698      4387.0898    
     43590   556.68234     -921.16141     -5772.031       4377.269     
     43600   554.84601     -921.20472     -3070.6494      4365.6729    
     43610   555.5592      -921.28358     -277.9506       4353.176     
     43620   556.82481     -921.33563      2604.966       4340.6783    
     43630   560.62752     -921.42016      5213.5941      4329.0769    
     43640   527.80226     -920.45189      7398.6459      4319.1716    
     43650   512.91282     -919.94602      9039.2979      4311.6167    
     43660   557.4513      -921.05474      10280.939      4306.9003    
     43670   575.94159     -921.4132       10943.077      4305.3738    
     43680   547.3126      -920.45581      10936.925      4307.2238    
     43690   591.70448     -921.51704      9721.7258      4312.4215    
     43700   630.16593     -922.38707      7580.0156      4320.6002    
     43710   560.39631     -920.25534      5195.4212      4331.1233    
     43720   527.72602     -919.1519       2219.6223      4343.2395    
     43730   565.71915     -919.96006     -1052.918       4356.0249    
     43740   590.90508     -920.36751     -3812.5559      4368.4652    
     43750   598.31371     -920.27782     -6096.1137      4379.6717    
     43760   598.28841     -920.00289     -7990.673       4388.9031    
     43770   566.93074     -918.89199     -9324.8325      4395.5511    
     43780   575.69977     -918.93021     -10123.346      4399.1866    
     43790   618.37915     -919.93781     -10287.015      4399.5627    
     43800   586.53065     -918.91716     -9486.6761      4396.659     
     43810   574.98786     -918.49726     -8171.7361      4390.7461    
     43820   633.34543     -920.03141     -6522.1669      4382.2712    
     43830   610.82506     -919.32982     -3926.4013      4371.8181    
     43840   598.24407     -918.91108     -1037.8959      4360.2248    
     43850   634.74864     -919.8455       1590.1516      4348.4111    
     43860   626.86893     -919.54627      4180.9084      4337.2152    
     43870   607.55321     -918.93463      6664.1312      4327.4406    
     43880   629.06563     -919.46686      8313.8119      4319.8138    
     43890   608.07271     -918.8374       9541.5702      4314.8326    
     43900   597.55551     -918.51931      10034.889      4312.8323    
     43910   669.28624     -920.51589      9564.2464      4313.9304    
     43920   641.23701     -919.78583      8604.1745      4317.9769    
     43930   573.14897     -917.96942      7049.5185      4324.6603    
     43940   607.65346     -919.00117      4737.6825      4333.4845    
     43950   622.65576     -919.48462      2282.2942      4343.7461    
     43960   583.50237     -918.45566     -246.7891       4354.6718    
     43970   578.68484     -918.35861     -2677.2008      4365.4674    
     43980   609.15277     -919.22418     -4981.838       4375.3556    
     43990   611.80524     -919.31478     -6529.5068      4383.62      
     44000   625.48764     -919.73002     -7630.7801      4389.755     
     44010   604.74067     -919.21282     -8251.7986      4393.4201    
     44020   596.08097     -919.05326     -8588.4559      4394.4205    
     44030   628.79026     -920.0717      -8465.4003      4392.6741    
     44040   638.52419     -920.49685     -7579.8452      4388.2575    
     44050   588.71065     -919.30044     -5991.2298      4381.4855    
     44060   578.44686     -919.20735     -4139.9698      4372.886     
     44070   611.76111     -920.33432     -2303.8482      4363.0674    
     44080   597.7837      -920.16068      42.451542      4352.6508    
     44090   543.29253     -918.84299      2550.9979      4342.3753    
     44100   561.61366     -919.51897      4736.3718      4333.0143    
     44110   606.93335     -920.94782      6493.1109      4325.2314    
     44120   591.14088     -920.69163      7863.0119      4319.5493    
     44130   559.64376     -920.00005      8448.0741      4316.3485    
     44140   557.93459     -920.12905      8394.6884      4315.7839    
     44150   557.70501     -920.29398      7851.3219      4317.8146    
     44160   544.10438     -920.06957      6843.8646      4322.2562    
     44170   569.93828     -920.92447      5247.8189      4328.7756    
     44180   564.09875     -920.87843      3703.5034      4336.8904    
     44190   574.82875     -921.27001      1862.9045      4346.0979    
     44200   604.58031     -922.17202     -319.60364      4355.8175    
     44210   587.40216     -921.75734     -2599.7266      4365.3654    
     44220   542.17401     -920.54059     -4759.6732      4374.0214    
     44230   537.61277     -920.42344     -6573.3432      4381.106     
     44240   543.14019     -920.55967     -7790.775       4386.0514    
     44250   536.61301     -920.3393      -8301.122       4388.4857    
     44260   552.19861     -920.713       -8319.686       4388.2589    
     44270   550.36767     -920.5769      -7641.0245      4385.4       
     44280   540.04266     -920.17008     -6367.8715      4380.1563    
     44290   563.59557     -920.64837     -4717.0824      4372.9588    
     44300   558.62585     -920.2582      -2354.2607      4364.3765    
     44310   562.32967     -920.03529      40.380434      4355.1627    
     44320   634.83731     -921.63728      1862.7835      4346.0644    
     44330   637.38803     -921.25956      3853.3033      4337.6774    
     44340   567.89572     -918.94192      5783.714       4330.6036    
     44350   582.51222     -919.02321      7001.2601      4325.403     
     44360   638.85987     -920.30268      7486.5999      4322.4229    
     44370   622.55021     -919.63889      7634.3305      4321.7968    
     44380   580.55633     -918.33786      7222.6033      4323.5344    
     44390   589.48747     -918.49011      6395.7682      4327.4944    
     44400   618.97827     -919.23218      5087.188       4333.3987    
     44410   630.9387      -919.50892      3476.2947      4340.8355    
     44420   600.60741     -918.62708      1544.8193      4349.2945    
     44430   606.29272     -918.74606     -655.23222      4358.1631    
     44440   645.07014     -919.7822      -2716.3332      4366.7542    
     44450   624.85298     -919.1916      -4271.8091      4374.4272    
     44460   601.48266     -918.52586     -5647.1291      4380.6787    
     44470   619.65544     -919.02212     -6755.142       4385.0823    
     44480   632.4306      -919.38568     -7492.9803      4387.299     
     44490   625.56137     -919.2315      -7307.8965      4387.132     
     44500   601.64494     -918.62661     -6449.2411      4384.6567    
     44510   580.3395      -918.09784     -5435.9804      4380.1643    
     44520   619.77652     -919.25766     -4453.7411      4373.9983    
     44530   632.10797     -919.67387     -2718.5076      4366.5245    
     44540   603.926       -918.97072     -476.43578      4358.3056    
     44550   609.68385     -919.20617      1584.8961      4350.0448    
     44560   638.38327     -920.08575      3020.5276      4342.3766    
     44570   625.44519     -919.82783      4195.6511      4335.7516    
     44580   597.93554     -919.17858      5448.3897      4330.5278    
     44590   585.38574     -918.94972      6553.4307      4327.0653    
     44600   577.84912     -918.85978      7075.1346      4325.6707    
     44610   605.82104     -919.76505      6853.4275      4326.4756    
     44620   614.55119     -920.15385      6055.5938      4329.3922    
     44630   601.09338     -919.93979      4967.7268      4334.165     
     44640   608.34101     -920.30837      3346.8004      4340.4314    
     44650   595.96438     -920.13443      1496.7616      4347.687     
     44660   553.09635     -919.09345     -389.00916      4355.3497    
     44670   559.0359      -919.37831     -2226.9305      4362.8233    
     44680   583.06917     -920.14554     -3664.0998      4369.5368    
     44690   594.94555     -920.56673     -4514.5448      4375.0457    
     44700   624.76373     -921.49689     -5372.029       4379.0666    
     44710   589.60647     -920.6374      -5998.4117      4381.3486    
     44720   538.68991     -919.32973     -6299.7556      4381.7102    
     44730   589.10002     -920.83163     -6332.7666      4380.0708    
     44740   566.6797      -920.30856     -5501.1176      4376.4652    
     44750   510.00106     -918.81289     -4087.1906      4371.1757    
     44760   543.99714     -919.79967     -2615.4069      4364.6615    
     44770   607.5531      -921.5803      -935.72036      4357.4133    
     44780   580.84436     -920.83777      1138.2082      4349.9798    
     44790   577.9837      -920.74305      2890.3453      4342.9944    
     44800   612.60628     -921.67723      4080.405       4336.9917    
     44810   567.57264     -920.39146      5019.7403      4332.3359    
     44820   547.79023     -919.79466      5606.3065      4329.2954    
     44830   571.9261      -920.38905      5735.1444      4328.0259    
     44840   570.43462     -920.23675      5854.4913      4328.5626    
     44850   594.82007     -920.76947      5224.5425      4330.8987    
     44860   597.43483     -920.65596      4138.6996      4334.8339    
     44870   544.63935     -918.97236      3144.301       4340.0326    
     44880   570.39335     -919.42721      1868.0185      4346.1628    
     44890   621.29067     -920.51337      382.24247      4352.822     
     44900   581.09717     -919.05393     -1028.1407      4359.5485    
     44910   595.44344     -919.13017     -2458.128       4365.8926    
     44920   641.21431     -920.07906     -3703.0084      4371.4084    
     44930   607.76231     -918.87225     -4292.8605      4375.722     
     44940   629.27592     -919.24589     -4880.972       4378.6327    
     44950   677.7426      -920.40735     -5450.2927      4379.9649    
     44960   602.86314     -918.2003      -5251.1265      4379.5784    
     44970   575.71884     -917.3578      -4747.9313      4377.5378    
     44980   637.48871     -918.99028     -3966.1025      4374.0232    
     44990   625.24627     -918.58089     -2865.2312      4369.3028    
     45000   613.49111     -918.20517     -1531.4598      4363.7425    
     45010   659.52429     -919.44719     -151.39426      4357.7695    
     45020   658.53109     -919.40644      1271.2231      4351.827     
     45030   629.84539     -918.62561      2498.9238      4346.3557    
     45040   604.61275     -917.95555      3287.199       4341.7214    
     45050   590.16975     -917.5861       4074.5513      4338.1761    
     45060   616.501       -918.34955      4472.8871      4335.9369    
     45070   659.55287     -919.5981       4651.9778      4335.116     
     45080   630.61965     -918.87932      4856.8903      4335.7647    
     45090   617.30019     -918.61597      4494.2145      4337.9146    
     45100   663.74555     -920.04291      3504.8571      4341.4363    
     45110   634.15963     -919.39116      2641.536       4346.038     
     45120   610.56018     -918.92164      1548.9516      4351.4298    
     45130   627.74232     -919.59516     -19.41584       4357.2562    
     45140   627.8507      -919.80816     -1730.0207      4363.0288    
     45150   594.24877     -919.08541     -3116.5502      4368.2195    
     45160   576.42557     -918.78247     -4130.4698      4372.3935    
     45170   587.19087     -919.25945     -4907.2142      4375.2289    
     45180   574.54193     -919.06948     -5167.3527      4376.4989    
     45190   585.55148     -919.52151     -5032.6187      4376.1287    
     45200   590.93379     -919.80767     -4360.9225      4374.1821    
     45210   570.88899     -919.36854     -3327.2402      4370.8863    
     45220   608.19645     -920.5068      -2522.9532      4366.566     
     45230   644.18853     -921.61328     -1576.7762      4361.5017    
     45240   588.6324      -920.17725     -292.02613      4356.0088    
     45250   567.62863     -919.67887      872.04896      4350.4821    
     45260   599.50148     -920.63101      1953.7361      4345.2897    
     45270   557.65342     -919.51659      3129.1394      4340.7729    
     45280   542.74761     -919.12315      3948.6578      4337.2767    
     45290   605.65809     -920.87312      4298.4643      4335.0405    
     45300   597.6999      -920.65066      4740.2007      4334.1784    
     45310   591.00654     -920.46711      4660.89        4334.7951    
     45320   613.34301     -921.09545      3970.9392      4336.8516    
     45330   547.05858     -919.25793      3142.4351      4340.1372    
     45340   536.06913     -918.93728      1953.6432      4344.3752    
     45350   598.75244     -920.63654      756.68901      4349.198     
     45360   577.16259     -919.98313      55.395553      4354.2438    
     45370   534.1166      -918.72477     -727.58569      4359.2736    
     45380   619.5561      -921.01846     -2013.2189      4364.0255    
     45390   636.54191     -921.40802     -2869.1356      4368.1237    
     45400   586.05044     -919.94589     -3290.683       4371.2999    
     45410   604.95703     -920.42308     -3961.3665      4373.4017    
     45420   580.45174     -919.69625     -4355.994       4374.2432    
     45430   551.17283     -918.83748     -4404.8148      4373.7072    
     45440   579.73015     -919.57643     -4038.3548      4371.7934    
     45450   581.48807     -919.56368     -3153.395       4368.6337    
     45460   587.00891     -919.65352     -1922.6743      4364.5183    
     45470   661.13142     -921.65471     -848.7016       4359.8319    
     45480   635.10258     -920.90068      220.926        4354.9243    
     45490   538.43014     -918.19573      1389.4064      4350.1421    
     45500   591.80274     -919.648        2028.0641      4345.8296    
     45510   617.23513     -920.31596      2627.2774      4342.1965    
     45520   547.21232     -918.33575      3397.9132      4339.4321    
     45530   565.56707     -918.80214      3612.7838      4337.7426    
     45540   620.34374     -920.27118      3807.5228      4337.2027    
     45550   589.72297     -919.37595      4128.0618      4337.8684    
     45560   596.31662     -919.52444      3907.7805      4339.8118    
     45570   636.18097     -920.60489      3189.3722      4342.9593    
     45580   605.59501     -919.74069      2305.1522      4347.0898    
     45590   615.07854     -919.99982      1063.358       4351.9141    
     45600   633.29311     -920.50716     -249.33878      4357.0476    
     45610   607.19521     -919.79293     -1468.0084      4362.0794    
     45620   589.87293     -919.3233      -2655.0913      4366.622     
     45630   591.8385      -919.38391     -3601.5187      4370.3048    
     45640   579.99347     -919.05432     -3935.7399      4372.8431    
     45650   584.86444     -919.18317     -4128.9355      4374.1223    
     45660   589.4364      -919.29956     -4328.5851      4374.0849    
     45670   566.61659     -918.64844     -4126.2414      4372.6873    
     45680   598.8984      -919.52024     -3577.2994      4370.0025    
     45690   629.19884     -920.3353      -2661.9275      4366.2169    
     45700   593.49896     -919.32323     -1280.0085      4361.6374    
     45710   597.89967     -919.42352     -29.763811      4356.6894    
     45720   645.07338     -920.71102      1103.8637      4351.7737    
     45730   617.40564     -919.93159      2250.4811      4347.2523    
     45740   590.01424     -919.16971      3143.0248      4343.4718    
     45750   602.7959      -919.52411      3664.5915      4340.7013    
     45760   605.97679     -919.61255      3878.1636      4339.0982    
     45770   617.51453     -919.94373      3789.567       4338.7183    
     45780   594.9336      -919.33644      3551.1407      4339.5297    
     45790   588.14169     -919.17289      3153.0785      4341.4503    
     45800   598.27909     -919.47954      2493.3112      4344.3473    
     45810   593.34877     -919.3695       1578.4721      4348.0104    
     45820   575.53992     -918.89844      670.56394      4352.1578    
     45830   608.41513     -919.83023     -267.61753      4356.4995    
     45840   646.70352     -920.92237     -1222.8592      4360.7381    
     45850   607.90273     -919.8987      -1938.8574      4364.5822    
     45860   565.88243     -918.79781     -2668.5341      4367.7958    
     45870   580.86441     -919.27819     -3425.5481      4370.1494    
     45880   605.31511     -920.02663     -3926.8345      4371.4129    
     45890   592.52614     -919.75165     -3886.2201      4371.4408    
     45900   585.51368     -919.64492     -3419.2115      4370.2517    
     45910   590.44278     -919.87153     -2803.8563      4367.9931    
     45920   617.27652     -920.7138      -2212.9791      4364.8632    
     45930   621.60201     -920.94968     -1401.7437      4361.0642    
     45940   569.0916      -919.61105     -307.27328      4356.862     
     45950   555.19404     -919.32964      434.23007      4352.5845    
     45960   571.62026     -919.8726       1125.0964      4348.4769    
     45970   578.0892      -920.12726      1952.0045      4344.7591    
     45980   561.05565     -919.71525      2858.7927      4341.6868    
     45990   577.73011     -920.22448      3486.2766      4339.5274    
     46000   614.7071      -921.29657      3736.8858      4338.4679    
     46010   582.5289      -920.45128      3892.2439      4338.5907    
     46020   561.4022      -919.90909      3677.3865      4339.929     
     46030   570.65622     -920.197        2975.8144      4342.4053    
     46040   578.818       -920.43764      2106.0157      4345.8088    
     46050   615.2923      -921.45847      982.9342       4349.8576    
     46060   586.86744     -920.6742       41.553726      4354.2119    
     46070   549.18366     -919.6231      -967.13547      4358.565     
     46080   562.22112     -919.95646     -2115.6622      4362.5959    
     46090   578.79264     -920.36279     -2982.006       4365.9537    
     46100   561.70507     -919.81501     -3278.9684      4368.3721    
     46110   563.7468      -919.77842     -3329.2109      4369.7505    
     46120   617.77716     -921.16226     -3524.7249      4370.063     
     46130   591.16405     -920.29448     -3209.2852      4369.276     
     46140   569.53743     -919.56422     -2721.4952      4367.4828    
     46150   584.1414      -919.81885     -2155.8268      4364.8414    
     46160   609.50777     -920.34983     -1399.2053      4361.5416    
     46170   606.85858     -920.09169     -599.62395      4357.8244    
     46180   577.61761     -919.09529      216.56444      4353.942     
     46190   551.76388     -918.18386      1293.2355      4350.1632    
     46200   614.78578     -919.71739      2047.3409      4346.8047    
     46210   674.44843     -921.14121      2777.3938      4344.1129    
     46220   611.70327     -919.20134      3595.0637      4342.3176    
     46230   608.03506     -918.94103      3729.3535      4341.646     
     46240   641.43482     -919.72106      3275.9961      4342.1372    
     46250   607.37027     -918.65038      2925.8637      4343.6673    
     46260   586.27269     -917.95948      2298.4328      4346.1094    
     46270   620.91245     -918.81831      1397.3853      4349.2645    
     46280   638.39263     -919.20717      666.93673      4352.8629    
     46290   637.50882     -919.10847      107.92427      4356.6731    
     46300   644.73405     -919.26093     -603.88698      4360.506     
     46310   606.29505     -918.16384     -1325.1633      4364.1442    
     46320   616.26184     -918.42145     -2314.3412      4367.3475    
     46330   645.45465     -919.22351     -3147.7316      4369.8163    
     46340   627.19858     -918.72921     -3495.1401      4371.2947    
     46350   620.8147      -918.58434     -3453.6323      4371.6733    
     46360   633.49823     -918.98776     -3228.6912      4370.9602    
     46370   615.9416      -918.56755     -2602.0443      4369.2408    
     46380   633.00617     -919.12657     -2012.3115      4366.7048    
     46390   643.05701     -919.51711     -1391.7024      4363.5464    
     46400   610.29078     -918.74131     -433.70193      4359.9765    
     46410   610.09059     -918.88335      289.77483      4356.282     
     46420   649.38276     -920.15286      696.5924       4352.6913    
     46430   613.80202     -919.38434      1171.7809      4349.3423    
     46440   554.98149     -917.9706       1896.5109      4346.3902    
     46450   589.39667     -919.15372      2460.1378      4344.0455    
     46460   580.98585     -919.16038      2978.6143      4342.4872    
     46470   569.47425     -919.08219      3294.2887      4341.8685    
     46480   597.78213     -920.1153       3293.4236      4342.2841    
     46490   640.32673     -921.57343      3035.7754      4343.7331    
     46500   620.70104     -921.32904      2590.1274      4346.1359    
     46510   602.62106     -921.12094      1634.6175      4349.3429    
     46520   570.63685     -920.49294      440.3548       4353.0597    
     46530   549.52412     -920.10548     -788.80741      4356.9131    
     46540   556.46253     -920.43976     -1884.0695      4360.5191    
     46550   540.12861     -920.07487     -2318.7344      4363.5466    
     46560   516.87692     -919.46547     -2626.8159      4365.8391    
     46570   569.619       -920.93086     -3083.1463      4367.293     
     46580   597.5133      -921.69124     -3212.739       4367.7781    
     46590   553.66157     -920.45442     -2889.5089      4367.2604    
     46600   560.89013     -920.62797     -2736.5237      4365.824     
     46610   566.36542     -920.73784     -2256.3234      4363.5371    
     46620   564.19756     -920.62433     -1561.1301      4360.5519    
     46630   579.29081     -920.98061     -839.19332      4357.0849    
     46640   549.89916     -920.0892       377.60625      4353.3818    
     46650   550.02361     -920.00119      1537.4555      4349.8119    
     46660   618.11985     -921.78107      2184.6667      4346.7261    
     46670   605.12166     -921.30742      2704.7576      4344.3397    
     46680   540.86837     -919.42047      2948.7782      4342.8082    
     46690   567.89911     -920.05828      2780.9731      4342.2005    
     46700   609.81831     -921.0882       2630.6663      4342.4748    
     46710   571.17255     -919.87949      2541.1389      4343.5864    
     46720   569.89311     -919.71014      1976.1928      4345.4877    
     46730   580.5101      -919.85504      1476.0556      4348.0193    
     46740   594.16284     -920.07462      996.54375      4351.0214    
     46750   613.08691     -920.43779      386.69974      4354.3397    
     46760   576.32126     -919.26016     -260.90757      4357.7851    
     46770   546.73312     -918.28362     -1033.9792      4361.1494    
     46780   618.6384      -920.10838     -1960.863       4364.1857    
     46790   657.77273     -921.0162      -2410.5078      4366.6182    
     46800   585.73359     -918.86916     -2411.1459      4368.3007    
     46810   603.44438     -919.23651     -2665.3676      4369.2122    
     46820   630.55032     -919.86532     -2879.2239      4369.28      
     46830   585.7895      -918.51399     -2427.712       4368.4573    
     46840   610.74446     -919.1092      -1965.0888      4366.8676    
     46850   640.99673     -919.85409     -1471.5817      4364.6619    
     46860   629.19309     -919.44999     -773.24067      4362.0038    
     46870   646.62406     -919.88189     -424.74021      4359.0977    
     46880   621.60063     -919.15701     -68.037254      4356.0676    
     46890   556.587       -917.32879      588.2001       4353.0328    
     46900   593.01833     -918.30684      1235.3385      4350.1911    
     46910   638.22869     -919.52117      1901.2412      4347.7461    
     46920   590.94979     -918.17413      2802.1524      4345.9162    
     46930   621.91524     -919.00652      3204.559       4344.9622    
     46940   693.20591     -920.9766       3025.7284      4345.0072    
     46950   635.74866     -919.41353      2855.2885      4346.0164    
     46960   583.58897     -918.02031      2247.1139      4347.9212    
     46970   628.08697     -919.32201      1266.4948      4350.5314    
     46980   619.1769      -919.15505      655.41324      4353.5639    
     46990   619.40288     -919.26653      30.53003       4356.8138    
     47000   618.05082     -919.36372     -671.55404      4360.0829    
     47010   593.18457     -918.83195     -1348.8409      4363.1509    
     47020   615.40006     -919.63973     -2182.8522      4365.7959    
     47030   623.10562     -920.09383     -2877.3202      4367.7601    
     47040   577.98734     -919.11796     -3052.1985      4368.832     
     47050   554.64365     -918.75001     -3038.1472      4368.9431    
     47060   580.20992     -919.74782     -2940.402       4368.0937    
     47070   590.7932      -920.33352     -2487.0892      4366.3224    
     47080   606.6778      -921.06772     -1794.0706      4363.7694    
     47090   586.18227     -920.77631     -1084.178       4360.6481    
     47100   560.77509     -920.30348     -364.88497      4357.1864    
     47110   577.98414     -920.97281      231.53031      4353.6081    
     47120   564.48791     -920.75176      737.70255      4350.1008    
     47130   531.86318     -919.95098      1459.9301      4346.8347    
     47140   543.91649     -920.34738      2268.2027      4344.0313    
     47150   564.7866      -920.95374      3078.1686      4341.9447    
     47160   599.33596     -921.92383      3376.0044      4340.8149    
     47170   597.15789     -921.87218      3235.4866      4340.7397    
     47180   545.85604     -920.44887      3039.5573      4341.6887    
     47190   555.627       -920.70411      2482.5848      4343.5929    
     47200   575.647       -921.22446      1517.788       4346.2811    
     47210   517.68056     -919.55886      698.92304      4349.471     
     47220   522.31682     -919.60821     -109.79102      4352.897     
     47230   565.00078     -920.67715     -633.40027      4356.3156    
     47240   564.26677     -920.51845     -998.11767      4359.5559    
     47250   576.49622     -920.71166     -1589.0132      4362.4909    
     47260   617.00954     -921.68449     -2273.6761      4364.9344    
     47270   570.35615     -920.24446     -2420.7831      4366.6866    
     47280   557.83379     -919.7634      -2535.559       4367.6785    
     47290   604.13746     -920.9071      -2649.2704      4367.8718    
     47300   579.73521     -920.0889      -2474.9839      4367.2351    
     47310   579.34503     -919.94895     -2294.5684      4365.8116    
     47320   627.46312     -921.15917     -2106.0386      4363.6565    
     47330   586.72879     -919.91529     -1473.6214      4360.8406    
     47340   546.27304     -918.6924      -545.99989      4357.5586    
     47350   577.05139     -919.43677      280.96127      4354.0934    
     47360   597.49357     -919.88381      1007.0472      4350.7051    
     47370   594.47958     -919.68536      1855.8435      4347.6312    
     47380   585.60702     -919.33257      2577.7012      4345.1324    
     47390   597.69025     -919.56747      2936.0527      4343.432     
     47400   619.93174     -920.09323      3059.9788      4342.6495    
     47410   608.14976     -919.69104      3057.8393      4342.8304    
     47420   594.21035     -919.24345      3089.9352      4343.9854    
     47430   622.81426     -919.98628      2905.1093      4346.1243    
     47440   643.26258     -920.51804      2105.9129      4349.1855    
     47450   613.56268     -919.67716      819.52265      4352.9291    
     47460   593.17349     -919.10475     -492.56939      4356.9654    
     47470   572.42318     -918.51372     -1300.7975      4360.8974    
     47480   611.32195     -919.57212     -2102.8541      4364.4498    
     47490   622.20308     -919.85463     -2764.9436      4367.3683    
     47500   571.08548     -918.42141     -3001.6764      4369.444     
     47510   582.91974     -918.73036     -3024.3849      4370.5876    
     47520   651.62525     -920.6187      -3005.4367      4370.7779    
     47530   622.64148     -919.81139     -2809.3625      4370.0211    
     47540   598.60578     -919.15844     -2669.4224      4368.3643    
     47550   614.64559     -919.62428     -2352.6697      4365.8507    
     47560   592.11884     -919.01998     -1377.2794      4362.5913    
     47570   597.07208     -919.17694     -311.50899      4358.8753    
     47580   607.40386     -919.48078      474.07141      4355.0285    
     47590   577.73233     -918.6706       1271.0413      4351.3075    
     47600   589.57318     -919.00329      2072.2321      4347.9638    
     47610   664.31067     -921.08783      2661.0444      4345.2467    
     47620   636.43064     -920.34909      3291.361       4343.3574    
     47630   607.23246     -919.60074      3371.28        4342.4829    
     47640   627.5905      -920.2542       2757.0269      4342.6507    
     47650   573.62225     -918.86297      2607.8581      4343.7151    
     47660   539.63704     -918.02682      2442.998       4345.623     
     47670   590.16912     -919.54272      1629.1866      4348.3113    
     47680   603.78862     -920.05743      864.03486      4351.5586    
     47690   586.39725     -919.74123      51.464548      4355.1249    
     47700   610.07312     -920.60787     -734.41028      4358.7602    
     47710   598.93696     -920.55933     -1374.7686      4362.2157    
     47720   566.40414     -919.94068     -1921.6927      4365.2873    
     47730   577.15125     -920.53918     -2960.9159      4367.7722    
     47740   556.01952     -920.24836     -3663.3988      4369.3565    
     47750   533.48169     -919.88268     -3695.0605      4369.8105    
     47760   568.15159     -921.07303     -3359.3402      4369.1012    
     47770   594.20519     -922.01252     -2891.6663      4367.3135    
     47780   550.56955     -920.98479     -2253.1863      4364.5881    
     47790   558.66284     -921.35668     -1733.8066      4361.107     
     47800   565.57358     -921.66729     -914.6478       4357.0388    
     47810   527.3588      -920.68675      404.27378      4352.6463    
     47820   532.0223      -920.85824      1203.4952      4348.3118    
     47830   531.66809     -920.85268      1779.5797      4344.3007    
     47840   527.79923     -920.71379      2579.7884      4340.8097    
     47850   564.1839      -921.66222      3471.7403      4338.0935    
     47860   558.11758     -921.40771      4111.1725      4336.4335    
     47870   534.01043     -920.63618      4309.9726      4336.0434    
     47880   565.36963     -921.38303      4000.6539      4337.0008    
     47890   580.08166     -921.64337      3524.9599      4339.2427    
     47900   572.21269     -921.26895      2777.4846      4342.6374    
     47910   552.24566     -920.54975      1850.7311      4346.9766    
     47920   563.934       -920.69533      561.69906      4351.9764    
     47930   569.93144     -920.66249     -634.3085       4357.2569    
     47940   570.93838     -920.48524     -1796.7368      4362.438     
     47950   569.51885     -920.23868     -2894.2788      4367.1469    
     47960   547.72719     -919.43222     -3729.3736      4371.0281    
     47970   556.9383      -919.49187     -4376.9804      4373.7896    
     47980   598.41332     -920.45052     -4662.2724      4375.2082    
     47990   626.83083     -921.06749     -4470.2175      4375.1686    
     48000   593.19095     -919.99938     -3763.0882      4373.7097    
     48010   599.3086      -920.06628     -3214.1365      4371.0118    
     48020   598.30258     -919.94994     -2700.4802      4367.2353    
     48030   562.0311      -918.86591     -1815.9874      4362.5403    
     48040   545.78519     -918.33343     -526.84224      4357.1942    
     48050   572.65284     -918.9803       984.9077       4351.5957    
     48060   625.71874     -920.34155      2516.2588      4346.2147    
     48070   650.42068     -920.92745      3929.4918      4341.5368    
     48080   635.49947     -920.44506      4794.8326      4338.009     
     48090   624.83162     -920.10987      5080.9264      4335.9247    
     48100   633.87865     -920.34804      4707.7594      4335.3966    
     48110   573.85999     -918.68167      4207.5187      4336.3559    
     48120   543.34349     -917.82805      3586.6964      4338.6713    
     48130   592.29268     -919.16153      2780.5666      4342.1755    
     48140   616.06771     -919.78526      1852.2647      4346.6439    
     48150   596.06156     -919.19511      876.76179      4351.8063    
     48160   603.90332     -919.37815     -340.13449      4357.3612    
     48170   605.73279     -919.38918     -1451.4961      4362.9418    
     48180   612.89707     -919.54766     -2457.4755      4368.189     
     48190   638.35767     -920.22138     -3514.8333      4372.7645    
     48200   611.28471     -919.45018     -4309.6712      4376.3223    
     48210   596.23187     -919.0224      -4889.2725      4378.577     
     48220   642.56371     -920.31091     -5220.3318      4379.3113    
     48230   609.41879     -919.41254     -5043.3028      4378.3929    
     48240   552.79588     -917.86794     -4419.7279      4375.8446    
     48250   604.71837     -919.33225     -3671.4914      4371.823     
     48260   614.54031     -919.62275     -2298.1654      4366.5608    
     48270   591.97198     -919.01654     -770.39902      4360.4629    
     48280   604.45832     -919.38055      607.39538      4353.9964    
     48290   627.64228     -920.04394      2030.6939      4347.6018    
     48300   619.0955      -919.83812      3490.2484      4341.7352    
     48310   622.31403     -919.98087      4509.8243      4336.8542    
     48320   582.4262      -918.94776      5171.2683      4333.3015    
     48330   546.09711     -918.01317      5609.0936      4331.3127    
     48340   610.9541      -919.89531      5725.027       4331.0545    
     48350   639.71918     -920.80398      5493.9637      4332.5967    
     48360   600.86848     -919.87067      5024.8707      4335.9143    
     48370   596.38318     -919.91133      3784.4404      4340.8843    
     48380   619.09092     -920.72893      1911.6425      4347.1586    
     48390   592.50086     -920.18885      28.32653       4354.1915    
     48400   570.92028     -919.78246     -1709.1488      4361.3995    
     48410   553.38215     -919.46914     -3149.279       4368.2346    
     48420   532.35151     -919.02849     -4466.153       4374.213     
     48430   560.10438     -919.91469     -5454.0874      4378.8936    
     48440   612.3154      -921.48035     -5979.0334      4381.9255    
     48450   597.21879     -921.1866      -5871.0049      4383.1092    
     48460   580.28828     -920.84513     -5748.4629      4382.421     
     48470   587.0004      -921.16169     -5659.5697      4379.8626    
     48480   542.55691     -920.04885     -5024.9386      4375.4476    
     48490   502.38063     -919.01842     -3711.3982      4369.356     
     48500   559.19297     -920.64556     -2085.3283      4361.9739    
     48510   579.0955      -921.21486     -124.79473      4353.8097    
     48520   563.04033     -920.76113      1939.8993      4345.4734    
     48530   573.57147     -921.01988      3959.9392      4337.6179    
     48540   585.14496     -921.28424      5806.4838      4330.8879    
     48550   585.38511     -921.22276      6988.4726      4325.8641    
     48560   571.8183      -920.77132      7407.741       4322.9419    
     48570   564.94096     -920.49778      7258.6919      4322.2899    
     48580   563.57878     -920.36105      6732.0311      4323.9047    
     48590   569.2254      -920.39694      5943.4876      4327.6708    
     48600   548.9995      -919.68546      4729.6254      4333.3744    
     48610   546.42985     -919.4287       3124.2262      4340.6775    
     48620   593.10165     -920.48385      1242.8592      4349.1087    
     48630   590.09663     -920.11545     -508.22004      4358.1038    
     48640   579.00858     -919.51332     -2242.3081      4367.1079    
     48650   621.86418     -920.3982      -4048.1011      4375.5587    
     48660   643.67755     -920.70584     -5788.587       4382.8598    
     48670   604.32659     -919.36523     -7090.7792      4388.4335    
     48680   603.53        -919.14654     -8069.6133      4391.8134    
     48690   593.05487     -918.69553     -8107.9459      4392.6606    
     48700   571.98027     -917.9839      -7262.6147      4390.9225    
     48710   638.95582     -919.74003     -6416.1254      4386.8104    
     48720   675.65354     -920.68689     -5424.8077      4380.5781    
     48730   616.25347     -919.01252     -3698.402       4372.5453    
     48740   561.14571     -917.46769     -1476.973       4363.2464    
     48750   591.14312     -918.26748      617.39757      4353.3677    
     48760   629.14372     -919.27299      2754.413       4343.5818    
     48770   634.21943     -919.36889      5052.6843      4334.5733    
     48780   611.54562     -918.70518      7127.052       4327.0616    
     48790   610.91727     -918.66469      8590.8152      4321.6973    
     48800   648.34518     -919.70329      9151.2011      4318.9489    
     48810   653.05576     -919.87388      8765.9738      4319.015     
     48820   614.96139     -918.8927       7858.623       4321.8217    
     48830   606.81413     -918.76166      6662.9867      4327.13      
     48840   613.68889     -919.05356      5122.1133      4334.6029    
     48850   618.82703     -919.30306      3027.5917      4343.7849    
     48860   590.41294     -918.61012      578.98589      4354.0462    
     48870   619.78987     -919.50902     -1815.4308      4364.6352    
     48880   646.81075     -920.34548     -4089.7629      4374.7891    
     48890   612.71934     -919.49406     -6191.5624      4383.7624    
     48900   590.62725     -918.97837     -7899.5355      4390.8592    
     48910   589.16881     -919.0381      -9079.9561      4395.4967    
     48920   580.10682     -918.89588     -9344.3286      4397.2698    
     48930   567.33464     -918.6538      -8821.6139      4396.059     
     48940   594.38078     -919.52441     -7912.5632      4391.9964    
     48950   600.77985     -919.82911     -6508.7549      4385.3628    
     48960   609.17582     -920.19516     -4580.5479      4376.6046    
     48970   613.82626     -920.46243     -2357.1173      4366.3317    
     48980   575.44569     -919.52396      179.30361      4355.2607    
     48990   571.50619     -919.51663      2718.1252      4344.1931    
     49000   618.59979     -920.91723      4865.9025      4333.9203    
     49010   609.44187     -920.76759      6889.0458      4325.1311    
     49020   567.37467     -919.71108      8573.9611      4318.4495    
     49030   589.20619     -920.44323      9626.3332      4314.3969    
     49040   607.399       -921.11133      9734.5026      4313.3006    
     49050   562.49106     -920.06316      9078.1098      4315.2156    
     49060   514.56657     -918.93347      8033.6248      4319.9748    
     49070   543.72256     -919.94134      6308.4944      4327.2701    
     49080   574.02767     -920.98551      4143.3282      4336.6021    
     49090   581.19532     -921.39425      1606.2323      4347.3154    
     49100   564.59484     -921.14344     -1164.6784      4358.6248    
     49110   537.5884      -920.58715     -3703.384       4369.6652    
     49120   542.3005      -920.89367     -5844.8093      4379.6186    
     49130   571.61155     -921.88605     -7653.8809      4387.775     
     49140   551.94787     -921.52811     -8902.3684      4393.5355    
     49150   511.54667     -920.5838      -9484.3219      4396.4758    
     49160   540.91043     -921.56885     -9699.1127      4396.3777    
     49170   575.73403     -922.71959     -9284.1595      4393.1675    
     49180   517.20494     -921.27368     -7937.9689      4386.983     
     49190   476.22441     -920.2741      -5966.7002      4378.2515    
     49200   519.78424     -921.57451     -3644.8403      4367.6055    
     49210   535.02097     -922.03542     -699.24393      4355.8093    
     49220   523.15531     -921.68553      2358.8487      4343.7927    
     49230   564.00102     -922.74635      4932.3247      4332.5072    
     49240   551.73829     -922.2844       7235.5113      4322.7672    
     49250   515.8007      -921.13093      8884.5669      4315.2705    
     49260   528.34154     -921.28162      9704.5667      4310.5146    
     49270   526.26986     -920.97424      10148.367      4308.7614    
     49280   526.04343     -920.6759       10064.428      4310.1447    
     49290   565.734       -921.44309      9108.6349      4314.6392    
     49300   565.28324     -921.07639      7609.4008      4321.9764    
     49310   556.5651      -920.5174       5596.4875      4331.7131    
     49320   609.97285     -921.71306      2760.8302      4343.2289    
     49330   607.55304     -921.39395     -221.81795      4355.6644    
     49340   550.05308     -919.59575     -2946.0005      4368.0892    
     49350   566.57388     -919.87025     -5799.1585      4379.6114    
     49360   579.91932     -920.05435     -8104.6098      4389.3254    
     49370   544.43231     -918.89701     -9492.9394      4396.4776    
     49380   566.76898     -919.36141     -10307.392      4400.5904    
     49390   610.84078     -920.44053     -10378.895      4401.4002    
     49400   599.60618     -920.01312     -9695.2088      4398.8829    
     49410   586.82225     -919.57238     -8607.5772      4393.2552    
     49420   594.25446     -919.70397     -6916.0462      4384.8897    
     49430   573.34014     -919.04394     -4371.4373      4374.359     
     49440   560.66704     -918.59058     -1376.2361      4362.4872    
     49450   617.4223      -920.02987      1424.0012      4350.2251    
     49460   655.05832     -920.91669      4092.9861      4338.4688    
     49470   608.24538     -919.46711      6803.0073      4328.0594    
     49480   624.42014     -919.78293      8781.5619      4319.8032    
     49490   650.47618     -920.39054      9898.886       4314.2953    
     49500   619.4618      -919.45464      10139.157      4311.8596    
     49510   567.13399     -917.95906      9682.1851      4312.5601    
     49520   558.13475     -917.67279      8835.7955      4316.2602    
     49530   595.30516     -918.65885      7409.1736      4322.6925    
     49540   627.6731      -919.50142      5362.1735      4331.4204    
     49550   654.06514     -920.18251      2987.3466      4341.8216    
     49560   600.03286     -918.63473      624.71274      4353.1658    
     49570   600.56658     -918.59548     -1734.0256      4364.707     
     49580   651.36993     -919.93734     -4050.1938      4375.6922    
     49590   649.02064     -919.81176     -6171.0518      4385.3783    
     49600   612.26017     -918.75324     -8087.5026      4393.0765    
     49610   598.01241     -918.33635     -9530.9343      4398.1697    
     49620   605.82363     -918.54816     -9982.6777      4400.2096    
     49630   618.15174     -918.91043     -9717.2644      4399.0465    
     49640   609.48594     -918.71475     -8678.9093      4394.787     
     49650   610.06581     -918.79488     -7116.9212      4387.7784    
     49660   630.73231     -919.44441     -4960.9142      4378.5554    
     49670   628.13545     -919.46028     -2343.3131      4367.8292    
     49680   587.57129     -918.41552      493.64071      4356.4511    
     49690   625.05528     -919.53378      2661.1023      4345.3003    
     49700   636.63202     -919.94549      4655.1282      4335.0729    
     49710   610.86736     -919.33949      6784.5325      4326.3909    
     49720   591.34142     -918.92365      8465.3881      4319.881     
     49730   584.20924     -918.8666       9243.6433      4316.0274    
     49740   597.48825     -919.40017      9106.7258      4315.0482    
     49750   604.91536     -919.80074      8310.3214      4316.8821    
     49760   589.42558     -919.5851       7719.0711      4321.3028    
     49770   597.11991     -920.02483      6451.2117      4328.0922    
     49780   620.18056     -920.90359      4336.6199      4336.8511    
     49790   614.25243     -920.98322      1810.4082      4346.9319    
     49800   571.13078     -920.0077      -602.43855      4357.555     
     49810   564.08076     -919.99248     -3052.7458      4367.9479    
     49820   562.6454      -920.09844     -5331.2478      4377.3347    
     49830   526.86627     -919.20554     -7121.8621      4384.9925    
     49840   548.26226     -919.86935     -8316.4611      4390.3493    
     49850   570.66448     -920.54321     -8722.721       4393.0341    
     49860   599.03812     -921.38448     -8600.7541      4392.9205    
     49870   605.89266     -921.63961     -8030.1141      4390.0666    
     49880   560.05642     -920.43893     -7038.8088      4384.6771    
     49890   492.82076     -918.61596     -5334.2934      4377.1096    
     49900   557.25835     -920.41002     -3288.5827      4367.9231    
     49910   607.75658     -921.77485     -898.76338      4357.794     
     49920   582.15596     -921.00671      1631.4494      4347.4891    
     49930   566.67274     -920.49972      3880.5911      4337.7955    
     49940   588.00491     -920.99224      5761.6003      4329.4077    
     49950   583.76445     -920.75857      7376.3457      4322.8968    
     49960   568.41702     -920.21325      8381.0949      4318.7247    
     49970   552.96089     -919.65827      8656.5625      4317.1744    
     49980   567.70763     -919.92913      8134.5844      4318.3034    
     49990   583.80255     -920.21736      7194.9224      4321.9424    
     50000   579.08123     -919.91106      6035.3524      4327.7917    
Loop time of 12.9608 on 1 procs for 50000 steps with 216 atoms

Performance: 333.314 ns/day, 0.072 hours/ns, 3857.799 timesteps/s, 833.285 katom-step/s
99.1% CPU use with 1 MPI tasks x 1 OpenMP threads

MPI task timing breakdown:
Section |  min time  |  avg time  |  max time  |%varavg| %total
---------------------------------------------------------------
Pair    | 12.408     | 12.408     | 12.408     |   0.0 | 95.74
Neigh   | 0          | 0          | 0          |   0.0 |  0.00
Comm    | 0.14169    | 0.14169    | 0.14169    |   0.0 |  1.09
Output  | 0.043096   | 0.043096   | 0.043096   |   0.0 |  0.33
Modify  | 0.33311    | 0.33311    | 0.33311    |   0.0 |  2.57
Other   |            | 0.03473    |            |       |  0.27

Nlocal:            216 ave         216 max         216 min
Histogram: 1 0 0 0 0 0 0 0 0 0
Nghost:            950 ave         950 max         950 min
Histogram: 1 0 0 0 0 0 0 0 0 0
Neighs:              0 ave           0 max           0 min
Histogram: 1 0 0 0 0 0 0 0 0 0
FullNghs:         7344 ave        7344 max        7344 min
Histogram: 1 0 0 0 0 0 0 0 0 0

Total # of neighbors = 7344
Ave neighs/atom = 34
Neighbor list builds = 0
Dangerous builds = 0

# ---------- Average box dimensions ----------

variable sample_interval equal 100
variable nsamples equal ${first_run_step}/${sample_interval}
variable nsamples equal 50000/${sample_interval}
variable nsamples equal 50000/100

variable Lx equal lx
variable Ly equal ly
variable Lz equal lz

variable Etot equal pe
variable Ecoh equal c_eatoms/count(all)
variable Temp equal temp
variable Press equal press
variable Vol equal vol
variable natoms equal count(all)

fix avg all ave/time ${sample_interval} ${nsamples} ${first_run_step} v_Lx v_Ly v_Lz v_Etot v_Ecoh v_Temp v_Press v_Vol v_natoms file ../results/lattice_parameter/box_average_${temperature}.dat
fix avg all ave/time 100 ${nsamples} ${first_run_step} v_Lx v_Ly v_Lz v_Etot v_Ecoh v_Temp v_Press v_Vol v_natoms file ../results/lattice_parameter/box_average_${temperature}.dat
fix avg all ave/time 100 500 ${first_run_step} v_Lx v_Ly v_Lz v_Etot v_Ecoh v_Temp v_Press v_Vol v_natoms file ../results/lattice_parameter/box_average_${temperature}.dat
fix avg all ave/time 100 500 50000 v_Lx v_Ly v_Lz v_Etot v_Ecoh v_Temp v_Press v_Vol v_natoms file ../results/lattice_parameter/box_average_${temperature}.dat
fix avg all ave/time 100 500 50000 v_Lx v_Ly v_Lz v_Etot v_Ecoh v_Temp v_Press v_Vol v_natoms file ../results/lattice_parameter/box_average_600.dat

# ---------- Production ----------
run ${first_run_step}
run 50000
Per MPI rank memory allocation (min/avg/max) = 4.487 | 4.487 | 4.487 Mbytes
   Step          Temp          PotEng         Press          Volume    
     50000   579.08123     -919.91106      6035.3524      4327.7917    
     50010   581.66045     -919.78885      4627.1626      4335.4849    
     50020   605.80171     -920.23893      2580.3467      4344.5661    
     50030   589.17048     -919.53256      247.56261      4354.4015    
     50040   588.40319     -919.25739     -1874.2515      4364.2668    
     50050   627.00907     -920.06058     -3844.8278      4373.4827    
     50060   621.39538     -919.64708     -5476.8222      4381.4281    
     50070   623.31397     -919.48269     -6902.7077      4387.5769    
     50080   640.07404     -919.77464     -7930.4147      4391.4852    
     50090   622.02665     -919.15538     -8308.1807      4392.843     
     50100   586.69953     -918.10515     -7897.5755      4391.5538    
     50110   592.25343     -918.21806     -7051.1046      4387.7643    
     50120   602.50938     -918.47842     -5900.9642      4381.7703    
     50130   588.87809     -918.0842      -4076.7806      4373.9836    
     50140   625.14396     -919.07792     -1846.8606      4365.0013    
     50150   656.65222     -919.94342      577.0362       4355.5476    
     50160   660.86655     -920.06972      2673.7454      4346.3804    
     50170   641.13057     -919.55193      4414.8587      4338.1554    
     50180   603.19471     -918.53863      5628.8501      4331.3939    
     50190   585.54717     -918.08606      6484.9538      4326.4568    
     50200   593.93783     -918.35549      7219.0321      4323.5905    
     50210   581.913       -918.05549      7815.8041      4322.9978    
     50220   637.46997     -919.64341      7718.2768      4324.8244    
     50230   688.95883     -921.154        6870.1437      4329.0213    
     50240   659.32441     -920.46304      5434.1402      4335.3153    
     50250   618.97713     -919.49984      3307.9555      4343.2467    
     50260   596.78186     -919.03832      669.79149      4352.1462    
     50270   559.93905     -918.13931     -1740.1987      4361.2011    
     50280   603.26864     -919.44576     -3861.7003      4369.6447    
     50290   601.08628     -919.48365     -5145.1262      4376.8223    
     50300   561.47015     -918.47282     -5839.3531      4382.3227    
     50310   597.44716     -919.55423     -6715.8376      4385.9086    
     50320   637.59323     -920.76839     -7230.6088      4387.3305    
     50330   573.88567     -919.11472     -6856.1308      4386.4582    
     50340   553.13701     -918.64546     -6209.7647      4383.4171    
     50350   595.8028      -919.93048     -5412.3866      4378.4366    
     50360   605.6766      -920.3019      -3817.5164      4371.8194    
     50370   619.23697     -920.78078     -2044.6416      4364.0775    
     50380   608.17355     -920.57885     -296.53809      4355.7868    
     50390   578.85451     -919.86362      1667.9405      4347.5149    
     50400   581.48354     -920.01828      3487.8371      4339.8686    
     50410   603.25505     -920.70273      4892.49        4333.3978    
     50420   558.22974     -919.52535      6138.1005      4328.5316    
     50430   567.88636     -919.85868      6770.9388      4325.6183    
     50440   611.06245     -921.12706      6696.7145      4324.8274    
     50450   577.27509     -920.27176      6344.662       4326.1236    
     50460   519.14491     -918.72915      5780.0439      4329.3818    
     50470   578.7216      -920.43946      4426.5241      4334.3931    
     50480   597.55183     -921.00431      3065.1021      4340.7501    
     50490   569.41815     -920.25766      1728.6393      4348.019     
     50500   586.12097     -920.74243     -105.0349       4355.7599    
     50510   587.77424     -920.79286     -1983.505       4363.4053    
     50520   558.52945     -919.96709     -3560.1555      4370.3721    
     50530   581.02528     -920.5593      -5119.1802      4376.1485    
     50540   582.41694     -920.54703     -6028.2473      4380.2665    
     50550   544.91803     -919.43984     -6256.0816      4382.4479    
     50560   568.55837     -920.00576     -6263.2979      4382.6233    
     50570   623.69093     -921.41298     -6167.2783      4380.8062    
     50580   581.01682     -920.0872      -5151.4877      4377.0787    
     50590   560.27563     -919.35719     -3717.1191      4371.7717    
     50600   637.75199     -921.31275     -2388.9143      4365.3471    
     50610   609.12882     -920.29271     -720.87755      4358.259     
     50620   539.11125     -918.13093      966.6185       4351.0354    
     50630   578.51852     -918.98376      2201.0752      4344.193     
     50640   605.12088     -919.44344      3673.4795      4338.1352    
     50650   579.46774     -918.45646      5115.1983      4333.3008    
     50660   602.16529     -918.82835      5936.2666      4330.1047    
     50670   650.56972     -919.926        6399.3479      4328.789     
     50680   647.74003     -919.6444       6520.3049      4329.4778    
     50690   662.77001     -919.91715      5777.2508      4332.1713    
     50700   636.25329     -919.08452      4584.8599      4336.6379    
     50710   596.25763     -917.91045      3329.2195      4342.5043    
     50720   617.70484     -918.45002      1780.2372      4349.362     
     50730   662.79882     -919.65305     -21.981266      4356.7199    
     50740   632.61677     -918.78536     -1496.4487      4364.0252    
     50750   625.32493     -918.57264     -3032.1449      4370.7974    
     50760   638.87819     -918.95279     -4648.3335      4376.55      
     50770   597.58694     -917.82268     -5794.3883      4380.79      
     50780   595.71788     -917.79457     -6393.974       4383.1623    
     50790   629.40193     -918.76546     -6358.3158      4383.4948    
     50800   621.42285     -918.59794     -5723.9053      4381.8191    
     50810   630.73534     -918.93364     -4930.1331      4378.3455    
     50820   642.5026      -919.36207     -3830.5618      4373.3556    
     50830   615.41198     -918.73372     -2275.4555      4367.2243    
     50840   593.24635     -918.2414      -522.60308      4360.4547    
     50850   666.10907     -920.40484      860.31404      4353.592     
     50860   653.87086     -920.2461       2200.8292      4347.0846    
     50870   584.42523     -918.51099      3578.8658      4341.3505    
     50880   607.70418     -919.35282      4349.5129      4336.7869    
     50890   627.71383     -920.12664      4793.007       4333.6293    
     50900   574.94203     -918.88205      5183.0676      4332.0056    
     50910   571.04712     -918.97682      5035.5239      4332.0027    
     50920   593.55174     -919.79722      4728.1906      4333.5731    
     50930   578.85656     -919.56942      4400.8558      4336.6128    
     50940   602.90499     -920.40445      3319.4039      4340.9834    
     50950   617.94831     -920.98314      1996.8338      4346.3581    
     50960   580.72914     -920.09516      592.20834      4352.3203    
     50970   551.67521     -919.39577     -995.11853      4358.4216    
     50980   581.66774     -920.30305     -2520.2449      4364.1661    
     50990   576.69876     -920.21538     -3418.0871      4369.0898    
     51000   557.75259     -919.71651     -3962.9113      4372.9018    
     51010   608.44285     -921.13812     -4564.9776      4375.4244    
     51020   614.92874     -921.33432     -4944.1313      4376.484     
     51030   550.03885     -919.54792     -4811.2794      4375.9837    
     51040   551.80788     -919.59892     -4637.7868      4373.9621    
     51050   579.14598     -920.34173     -3990.1677      4370.5032    
     51060   584.4283      -920.46155     -2743.0719      4365.8367    
     51070   591.35109     -920.62317     -1436.2555      4360.3542    
     51080   563.03159     -919.79722      154.04778      4354.4883    
     51090   560.48761     -919.67229      1626.8076      4348.7335    
     51100   611.01287     -921.00792      2566.5398      4343.5374    
     51110   602.17176     -920.69792      3427.6439      4339.2014    
     51120   545.01728     -919.04939      4277.3954      4335.9867    
     51130   591.12444     -920.26442      4521.1127      4334.1249    
     51140   595.61514     -920.31798      4662.0068      4333.6956    
     51150   547.70218     -918.9214       4707.2578      4334.7303    
     51160   583.68741     -919.84986      4112.5927      4337.214     
     51170   625.91301     -920.94411      3379.3414      4340.9686    
     51180   612.31006     -920.49989      2385.5995      4345.754     
     51190   620.27196     -920.66904      886.10992      4351.2477    
     51200   604.54921     -920.1872      -642.18838      4356.9879    
     51210   555.79057     -918.78562     -1883.8276      4362.4992    
     51220   568.58343     -919.07945     -2991.5295      4367.3834    
     51230   586.1225      -919.48771     -3766.6439      4371.2991    
     51240   565.13207     -918.81799     -4171.7165      4374.0038    
     51250   590.46139     -919.42807     -4277.9548      4375.3757    
     51260   651.04083     -921.01604     -4318.6649      4375.3811    
     51270   630.56292     -920.37472     -3982.0555      4374.0301    
     51280   587.67605     -919.13705     -3532.9813      4371.4312    
     51290   576.2094      -918.77182     -2805.4591      4367.7465    
     51300   613.79069     -919.7608      -1762.903       4363.2168    
     51310   616.82833     -919.78729     -497.36366      4358.1807    
     51320   603.60173     -919.36795      756.4554       4353.0367    
     51330   612.28994     -919.55783      1841.8213      4348.1757    
     51340   619.8979      -919.72162      2751.7094      4343.9366    
     51350   588.45261     -918.80567      3532.7744      4340.598     
     51360   584.93924     -918.66316      4181.4536      4338.3962    
     51370   627.85817     -919.80606      4428.0226      4337.5137    
     51380   619.83323     -919.54024      4333.8905      4338.0211    
     51390   607.8038      -919.17511      3714.5761      4339.8732    
     51400   626.51659     -919.6686       2817.9052      4342.8762    
     51410   608.50378     -919.14553      2033.7993      4346.7544    
     51420   602.71735     -918.96197      1057.2091      4351.2507    
     51430   634.95526     -919.83013     -181.02819      4356.0535    
     51440   608.3559      -919.0663      -1049.9619      4360.7901    
     51450   568.13157     -917.91965     -1801.0399      4365.1757    
     51460   624.32589     -919.43608     -2735.1025      4368.9652    
     51470   649.44022     -920.08267     -3441.2645      4371.8769    
     51480   615.02177     -919.09265     -3776.3693      4373.6932    
     51490   619.51607     -919.1977      -3976.4627      4374.305     
     51500   636.15319     -919.65223     -3837.7777      4373.6643    
     51510   632.1088      -919.55408     -3385.3008      4371.8235    
     51520   611.60205     -919.01889     -2940.8666      4368.9231    
     51530   589.72324     -918.45533     -2390.5197      4365.1158    
     51540   574.64215     -918.07394     -1374.7076      4360.5973    
     51550   608.22027     -919.03646     -243.21955      4355.6839    
     51560   616.28987     -919.29073      1069.2538      4350.7405    
     51570   595.28083     -918.73966      2455.2719      4346.1775    
     51580   631.66602     -919.78861      3145.5194      4342.4007    
     51590   658.02102     -920.58445      3630.8928      4339.6396    
     51600   595.3422      -918.93391      4172.7577      4338.0415    
     51610   565.95042     -918.20665      4378.0932      4337.7577    
     51620   628.88136     -920.04748      3961.9612      4338.8351    
     51630   634.32376     -920.31191      3452.7116      4341.1527    
     51640   612.64181     -919.8429       2899.3755      4344.5499    
     51650   623.25212     -920.28636      1765.6439      4348.832     
     51660   597.91782     -919.74038      378.45934      4353.6525    
     51670   549.99469     -918.5497      -860.93807      4358.5838    
     51680   576.43093     -919.40192     -2107.5357      4363.2256    
     51690   596.02436     -920.05804     -3034.2564      4367.1933    
     51700   544.51929     -918.72336     -3438.418       4370.2017    
     51710   582.66281     -919.86164     -3973.7781      4372.1026    
     51720   639.46718     -921.52532     -4319.9887      4372.7397    
     51730   571.79379     -919.7421      -3837.1515      4372.03      
     51740   549.98748     -919.21867     -3271.6759      4370.109     
     51750   613.65099     -921.06132     -2695.9351      4367.1636    
     51760   595.32136     -920.62704     -1687.7415      4363.3972    
     51770   572.89674     -920.07337     -707.88613      4359.1215    
     51780   616.73485     -921.35742     -91.053205      4354.6393    
     51790   589.89421     -920.68209      809.25535      4350.1691    
     51800   539.046       -919.325        1775.3261      4345.9872    
     51810   575.55496     -920.37854      2310.9873      4342.3754    
     51820   545.37719     -919.5573       3123.2518      4339.5234    
     51830   543.3679      -919.49564      3757.3231      4337.665     
     51840   611.49406     -921.36121      3844.6438      4336.9822    
     51850   596.87091     -920.92343      3806.4788      4337.5092    
     51860   539.34974     -919.28841      3737.7729      4339.2348    
     51870   605.64375     -921.07348      2819.8626      4342.1078    
     51880   616.10758     -921.28556      1805.0988      4345.863     
     51890   558.83032     -919.61199      978.05915      4350.1867    
     51900   553.52101     -919.35909     -164.83462      4354.8034    
     51910   569.66608     -919.65752     -1356.5638      4359.3582    
     51920   565.78984     -919.35735     -2098.153       4363.49      
     51930   622.69529     -920.70675     -2759.5286      4366.9497    
     51940   622.43203     -920.43932     -3018.4864      4369.542     
     51950   618.78775     -920.08749     -3273.8058      4371.1698    
     51960   643.08587     -920.51607     -3569.9375      4371.7551    
     51970   605.47251     -919.2459      -3579.9554      4371.2155    
     51980   551.87293     -917.55656     -3157.1029      4369.557     
     51990   591.59001     -918.45629     -2787.893       4366.9009    
     52000   643.8556      -919.69        -1893.4575      4363.3931    
     52010   624.66952     -918.96348     -549.86843      4359.3171    
     52020   610.38049     -918.40662      533.90187      4355.0816    
     52030   630.29692     -918.8198       1184.2371      4351.025     
     52040   631.23972     -918.72791      1891.9085      4347.367     
     52050   624.19287     -918.44201      2626.195       4344.3268    
     52060   607.90372     -917.91958      3202.7535      4342.1237    
     52070   620.26732     -918.20821      3792.1138      4340.9416    
     52080   656.77704     -919.18531      4026.5171      4340.9519    
     52090   683.21673     -919.92074      3698.5632      4342.2172    
     52100   670.08532     -919.60518      3156.7581      4344.6442    
     52110   644.54434     -918.98343      2326.4432      4348.0596    
     52120   601.22927     -917.87923      1181.7749      4352.1999    
     52130   608.6438      -918.17723     -164.48942      4356.7072    
     52140   640.55343     -919.16008     -1400.7491      4361.1636    
     52150   609.87543     -918.40852     -2155.047       4365.19      
     52160   630.17987     -919.07815     -3037.2415      4368.5265    
     52170   629.71765     -919.18229     -3809.6774      4370.8983    
     52180   577.5981      -917.8485      -3937.1904      4372.0761    
     52190   590.09496     -918.29518     -3852.9709      4372.0078    
     52200   632.86105     -919.58126     -3450.5392      4370.7278    
     52210   626.41815     -919.50871     -2606.1218      4368.373     
     52220   629.57503     -919.71022     -2031.8423      4365.1926    
     52230   622.39727     -919.63071     -1436.4492      4361.3838    
     52240   597.70035     -919.05617     -591.88294      4357.143     
     52250   611.93437     -919.55244      443.96282      4352.7381    
     52260   610.32634     -919.59903      1603.4813      4348.4948    
     52270   587.68566     -919.04863      2750.5394      4344.7763    
     52280   600.65039     -919.47009      3363.2963      4341.9225    
     52290   644.45411     -920.75154      3582.6292      4340.1275    
     52300   596.54482     -919.48934      3829.5998      4339.4702    
     52310   585.02947     -919.22968      3645.5631      4340.0124    
     52320   615.27598     -920.123        2752.1522      4341.6835    
     52330   579.20543     -919.16698      2108.3141      4344.2329    
     52340   562.52769     -918.73325      1659.1978      4347.4552    
     52350   604.20489     -919.90516      894.65233      4351.1943    
     52360   605.08815     -919.93803      71.300956      4355.22      
     52370   589.91145     -919.52241     -744.49624      4359.2726    
     52380   619.97411     -920.3621      -1788.5352      4363.0846    
     52390   602.5547      -919.88623     -2439.5596      4366.345     
     52400   568.65571     -918.9483      -2791.1774      4368.8425    
     52410   629.66358     -920.64439     -3432.0825      4370.4444    
     52420   615.57818     -920.26326     -3677.0123      4370.9702    
     52430   544.97622     -918.31429     -3320.1528      4370.3468    
     52440   594.30155     -919.6829      -2923.2884      4368.6734    
     52450   651.63286     -921.27279     -2570.492       4366.0736    
     52460   592.20664     -919.63357     -1622.8442      4362.6859    
     52470   580.44101     -919.31985     -897.31851      4358.7857    
     52480   602.40387     -919.93548     -239.65618      4354.6107    
     52490   549.68225     -918.46445      927.33906      4350.3883    
     52500   551.35396     -918.48213      2109.3447      4346.4711    
     52510   627.15539     -920.53687      2815.9616      4343.2154    
     52520   623.9003      -920.39539      3448.7725      4340.8566    
     52530   612.2849      -920.0375       3770.6941      4339.5821    
     52540   640.46718     -920.79928      3599.475       4339.4853    
     52550   592.25668     -919.45471      3437.6059      4340.528     
     52560   540.67956     -918.01189      3046.3339      4342.6522    
     52570   623.06063     -920.27363      2121.3862      4345.7258    
     52580   628.02916     -920.37487      1379.7051      4349.4841    
     52590   586.8665      -919.20297      553.47943      4353.6832    
     52600   591.44571     -919.29184     -454.94629      4358.0635    
     52610   606.44952     -919.65321     -1590.8988      4362.3041    
     52620   585.70703     -919.00381     -2483.9515      4366.0575    
     52630   606.01428     -919.47722     -3217.8882      4369.0312    
     52640   596.41137     -919.09464     -3334.3949      4371.0063    
     52650   603.92484     -919.16781     -3203.9416      4371.9322    
     52660   656.0014      -920.45323     -3291.9567      4371.8354    
     52670   663.07606     -920.48609     -3315.4186      4370.695     
     52680   594.3581      -918.43284     -2885.1422      4368.5191    
     52690   592.34638     -918.23523     -2369.283       4365.4309    
     52700   626.19763     -919.01184     -1557.1988      4361.6045    
     52710   590.85332     -917.85785     -270.51485      4357.3037    
     52720   603.2631      -918.02564      1091.6022      4352.9259    
     52730   672.21784     -919.74854      2004.1564      4348.8867    
     52740   659.77854     -919.2279       2836.1812      4345.4864    
     52750   638.93258     -918.51589      3414.9595      4342.9784    
     52760   641.17115     -918.47144      3704.9281      4341.5447    
     52770   632.23724     -918.14019      3760.4345      4341.2745    
     52780   641.26465     -918.33009      3562.5833      4342.19      
     52790   662.89258     -918.89651      2998.616       4344.2253    
     52800   628.01096     -917.92337      2532.8334      4347.2219    
     52810   625.11506     -917.85964      1717.1481      4351.0222    
     52820   658.88569     -918.83388      452.6446       4355.3688    
     52830   639.20689     -918.3508      -669.20438      4359.8829    
     52840   616.65338     -917.81131     -1500.8974      4364.2124    
     52850   623.29592     -918.09808     -2196.6804      4368.0871    
     52860   647.04442     -918.88562     -2864.366       4371.2801    
     52870   661.35877     -919.4528      -3580.5313      4373.5713    
     52880   643.9491      -919.18585     -3899.9273      4374.7424    
     52890   620.63665     -918.78275     -3759.4031      4374.6879    
     52900   635.2098      -919.45488     -3537.5609      4373.4385    
     52910   635.19159     -919.7465      -3261.8223      4371.0634    
     52920   590.87949     -918.8019      -2772.1364      4367.6536    
     52930   568.61921     -918.43049     -1989.6687      4363.3655    
     52940   577.81103     -918.89485     -1041.7922      4358.442     
     52950   576.26245     -919.02099      277.2764       4353.1933    
     52960   600.56991     -919.83523      1575.3704      4348.0218    
     52970   607.93166     -920.15947      2921.1893      4343.3438    
     52980   618.5451      -920.5622       3889.1173      4339.5673    
     52990   632.63685     -921.06474      4501.8955      4336.9989    
     53000   593.45652     -920.08599      4754.5797      4335.8328    
     53010   560.47141     -919.26285      4550.7158      4336.1523    
     53020   562.19523     -919.3764       3984.5691      4337.9013    
     53030   616.16494     -920.9286       3261.8944      4340.9164    
     53040   612.14108     -920.87003      2451.3398      4344.9855    
     53050   575.76886     -919.90994      1275.7593      4349.8526    
     53060   571.65641     -919.8289      -258.83485      4355.1545    
     53070   572.07654     -919.85264     -1895.7184      4360.4132    
     53080   549.95509     -919.2274      -2859.7958      4365.1324    
     53090   574.49007     -919.87825     -3391.2117      4368.9904    
     53100   596.54837     -920.44669     -3828.3187      4371.7992    
     53110   574.88915     -919.79595     -4067.254       4373.416     
     53120   594.07988     -920.27742     -4305.5506      4373.745     
     53130   588.65943     -920.06985     -3911.0998      4372.7226    
     53140   584.33443     -919.88933     -3117.8602      4370.4568    
     53150   625.41742     -920.96556     -2491.4147      4367.1757    
     53160   608.16224     -920.42503     -1754.2631      4363.0825    
     53170   546.70687     -918.65675     -587.27516      4358.4175    
     53180   580.82201     -919.52212      593.16638      4353.534     
     53190   629.83362     -920.77547      1580.412       4348.7989    
     53200   580.77518     -919.29909      2654.901       4344.536     
     53210   601.68482     -919.76342      3464.5157      4341.0738    
     53220   620.96975     -920.16544      4170.0409      4338.6781    
     53230   599.52133     -919.43479      4591.5378      4337.5754    
     53240   624.40045     -919.98769      4112.2879      4337.8912    
     53250   593.52947     -918.98317      3462.0316      4339.512     
     53260   552.79452     -917.69373      2990.5344      4342.2585    
     53270   613.56894     -919.18339      2335.6088      4345.9865    
     53280   663.8197      -920.3287       1541.3299      4350.504     
     53290   610.01899     -918.57923      811.76671      4355.5831    
     53300   637.53534     -919.08689     -575.32114      4360.9743    
     53310   656.51342     -919.3322      -2015.8568      4366.2609    
     53320   625.54704     -918.20217     -3041.2837      4370.9942    
     53330   629.94054     -918.06945     -3938.917       4374.8254    
     53340   642.67468     -918.17498     -4468.5339      4377.4597    
     53350   645.33803     -918.02308     -4570.5903      4378.7103    
     53360   705.6139      -919.50449     -4498.154       4378.5153    
     53370   672.71832     -918.45193     -3888.457       4376.8912    
     53380   602.09327     -916.40674     -3178.7707      4374.0037    
     53390   650.00016     -917.67494     -2807.2057      4370.0478    
     53400   661.57175     -917.95314     -1836.7658      4365.1597    
     53410   611.67253     -916.54974     -313.38664      4359.6365    
     53420   661.28751     -917.92731      1190.577       4353.9421    
     53430   678.13426     -918.42235      2512.6029      4348.5484    
     53440   657.16577     -917.90891      3537.5097      4343.8744    
     53450   680.91397     -918.68941      4091.785       4340.2456    
     53460   652.51679     -918.07706      4778.4601      4337.8709    
     53470   631.47034     -917.71267      5169.3562      4336.9699    
     53480   666.60736     -918.96775      4714.3019      4337.6732    
     53490   645.32691     -918.7237       3840.0413      4339.877     
     53500   616.25532     -918.28561      3118.2841      4343.3513    
     53510   656.46969     -919.80046      2121.0381      4347.877     
     53520   613.64935     -918.99959      965.67175      4353.1649    
     53530   571.25948     -918.12432     -407.74773      4358.8596    
     53540   611.64479     -919.46821     -1896.842       4364.5332    
     53550   626.31266     -920.04374     -3085.9128      4369.7201    
     53560   611.0235      -919.73931     -4088.537       4374.0232    
     53570   627.82263     -920.30276     -5025.339       4377.0965    
     53580   571.5629      -918.81661     -5423.9665      4378.6278    
     53590   548.95022     -918.23683     -5427.2581      4378.4519    
     53600   618.08478     -920.19208     -5128.0206      4376.5326    
     53610   609.53727     -919.99205     -3965.867       4372.957     
     53620   569.27318     -918.90794     -2521.6723      4368.0547    
     53630   611.7363      -920.11389     -1419.8135      4362.2503    
     53640   596.27098     -919.70416     -74.131073      4355.9035    
     53650   582.01312     -919.31794      1528.1911      4349.4369    
     53660   643.52863     -921.03356      2958.9593      4343.344     
     53670   618.3885      -920.35201      4463.4544      4338.0939    
     53680   583.49867     -919.40762      5332.8232      4334.1529    
     53690   624.06495     -920.56681      5318.4274      4331.8075    
     53700   586.76288     -919.57432      5339.1282      4331.1087    
     53710   522.12185     -917.81086      5333.5467      4332.0913    
     53720   613.08847     -920.35681      4448.6705      4334.7581    
     53730   626.58002     -920.74821      3406.8         4338.8907    
     53740   568.80782     -919.16766      2443.3238      4344.2003    
     53750   580.00449     -919.49317      1140.655       4350.3933    
     53760   582.66102     -919.56307     -197.44837      4357.0855    
     53770   570.03718     -919.18966     -1701.6897      4363.8546    
     53780   617.64261     -920.47421     -3349.8512      4370.2189    
     53790   618.76879     -920.46417     -4439.3013      4375.6584    
     53800   593.24205     -919.72217     -4989.3421      4379.7965    
     53810   632.48412     -920.78728     -5626.738       4382.4073    
     53820   619.7038      -920.42356     -6105.4467      4383.2589    
     53830   559.59642     -918.75791     -5980.7579      4382.1738    
     53840   571.78257     -919.09437     -5438.4818      4379.151     
     53850   594.01071     -919.69673     -4492.1761      4374.3314    
     53860   570.82309     -919.02518     -2893.9752      4368.0035    
     53870   587.798       -919.45111     -1274.4146      4360.6395    
     53880   621.8726      -920.33253      481.59439      4352.7501    
     53890   593.28888     -919.46228      2548.4921      4344.8951    
     53900   587.95174     -919.22799      4416.6071      4337.7171    
     53910   611.15945     -919.77062      5796.9889      4331.8088    
     53920   632.48979     -920.26107      6755.4374      4327.6254    
     53930   611.5974      -919.59138      7255.5652      4325.4946    
     53940   627.24885     -919.95505      6909.5796      4325.5927    
     53950   618.88612     -919.66663      6376.4277      4327.8741    
     53960   562.65988     -918.05737      5617.2705      4332.2137    
     53970   613.3688      -919.41014      3962.0077      4338.3936    
     53980   629.33639     -919.78139      2326.1199      4345.9626    
     53990   581.09366     -918.36716      637.36621      4354.4264    
     54000   618.65829     -919.32066     -1638.0523      4363.2473    
     54010   655.66054     -920.24085     -3705.6347      4371.7284    
     54020   610.27937     -918.88138     -5206.6831      4379.2002    
     54030   586.28355     -918.12316     -6581.7283      4385.136     
     54040   619.26222     -918.94247     -7533.7361      4389.0661    
     54050   603.5417      -918.4108      -7484.5021      4390.6572    
     54060   625.45228     -918.93548     -7117.3962      4389.8593    
     54070   669.9868      -920.10164     -6519.9827      4386.7545    
     54080   615.07128     -918.53248     -5384.8454      4381.5116    
     54090   604.82419     -918.2188      -3961.2627      4374.465     
     54100   650.83395     -919.46692     -2372.1522      4366.0484    
     54110   593.02353     -917.83095      2.1099258      4356.7822    
     54120   591.21262     -917.73807      2506.8731      4347.3981    
     54130   680.0402      -920.15004      4462.9378      4338.6715    
     54140   664.01046     -919.67261      6271.0467      4331.2442    
     54150   615.90069     -918.34258      7664.0295      4325.6869    
     54160   640.15311     -919.05407      8294.9254      4322.4472    
     54170   638.87014     -919.09922      8355.8124      4321.7569    
     54180   609.92933     -918.41467      7792.8916      4323.6727    
     54190   634.57841     -919.26027      6326.6626      4328.0509    
     54200   569.94991     -917.64536      4881.076       4334.5046    
     54210   569.21297     -917.79515      3193.2879      4342.6077    
     54220   645.5308      -920.09684      1015.6313      4351.8501    
     54230   629.89766     -919.86613     -1047.6255      4361.5811    
     54240   620.26752     -919.81284     -3180.5494      4371.1376    
     54250   645.35106     -920.74258     -5206.5693      4379.8326    
     54260   612.58346     -920.0826      -6880.8127      4386.9965    
     54270   556.21157     -918.74304     -8119.1932      4392.0586    
     54280   570.85324     -919.35225     -9020.0867      4394.5733    
     54290   567.48177     -919.44681     -8982.5496      4394.2283    
     54300   571.59257     -919.73206     -8041.6321      4390.9972    
     54310   598.6133      -920.64569     -6595.0627      4385.142     
     54320   582.7936      -920.35428     -4820.9982      4377.1063    
     54330   579.32661     -920.38314     -3012.7742      4367.4382    
     54340   572.55741     -920.29157     -749.98023      4356.7243    
     54350   545.56422     -919.59427      2062.0595      4345.6896    
     54360   579.97682     -920.56268      4597.0805      4335.2016    
     54370   593.08458     -920.915        6699.7826      4326.06      
     54380   577.70077     -920.46662      8377.6669      4318.932     
     54390   590.8071      -920.8101       9448.4436      4314.3469    
     54400   576.57435     -920.40118      9905.47        4312.6557    
     54410   544.88117     -919.51124      9600.3839      4314.0234    
     54420   567.71359     -920.13036      8537.9133      4318.3936    
     54430   594.93493     -920.86095      6789.7861      4325.4793    
     54440   575.51805     -920.28526      4791.5088      4334.7915    
     54450   600.47291     -920.92533      2264.8897      4345.7263    
     54460   610.26607     -921.11849     -623.17739      4357.5145    
     54470   561.91438     -919.67441     -3315.3308      4369.2633    
     54480   552.84409     -919.2919      -5938.8176      4380.0928    
     54490   569.09313     -919.57273     -7872.9451      4389.158     
     54500   585.25636     -919.82571     -9075.5978      4395.7986    
     54510   588.16181     -919.69999     -9710.9602      4399.5837    
     54520   585.86526     -919.43016     -9793.908       4400.2746    
     54530   588.66893     -919.30187     -9252.5247      4397.8149    
     54540   598.37792     -919.36264     -7895.172       4392.368     
     54550   645.61804     -920.45963     -6123.1598      4384.3469    
     54560   612.69664     -919.3354      -3723.0151      4374.3302    
     54570   586.58113     -918.41747     -1230.1378      4363.0707    
     54580   612.95089     -918.94393      1360.5843      4351.3714    
     54590   667.0654      -920.23483      4028.6623      4340.056     
     54600   651.40292     -919.61323      6569.4033      4329.9647    
     54610   625.40922     -918.7525       8325.3156      4321.873     
     54620   618.12306     -918.44852      9351.907       4316.3319    
     54630   603.39086     -917.9713       9916.6785      4313.6719    
     54640   610.90066     -918.14277      9886.2996      4314.0766    
     54650   623.71611     -918.493        9037.8447      4317.5489    
     54660   600.96611     -917.87986      7721.565       4323.8664    
     54670   624.81649     -918.57311      5821.6595      4332.6467    
     54680   674.07334     -919.98548      3516.742       4343.3281    
     54690   641.70861     -919.14488      1079.3735      4355.2165    
     54700   633.15493     -918.96188     -1917.2451      4367.5351    
     54710   664.01642     -919.86836     -5015.9281      4379.3391    
     54720   606.83204     -918.32623     -7352.0998      4389.6443    
     54730   574.86083     -917.46962     -9001.671       4397.6673    
     54740   641.9083      -919.36716     -10283.068      4402.8353    
     54750   635.24067     -919.24492     -10683.062      4404.7268    
     54760   622.6533      -918.99334     -10360.509      4403.1848    
     54770   627.01982     -919.24124     -9282.9404      4398.3076    
     54780   597.36582     -918.55917     -7566.3064      4390.4394    
     54790   565.31626     -917.79591     -5350.8217      4380.1392    
     54800   599.93294     -918.8605      -2730.9248      4368.1269    
     54810   606.4105      -919.11731      545.3871       4355.2644    
     54820   618.88665     -919.51596      3708.3179      4342.5783    
     54830   670.74559     -921.01356      6203.9652      4331.0519    
     54840   633.10318     -920.04667      8344.2386      4321.4736    
     54850   591.86454     -918.99492      9833.1763      4314.4863    
     54860   589.10645     -919.01861      10531.141      4310.5384    
     54870   602.63981     -919.51253      10623.663      4309.8467    
     54880   599.58622     -919.56595      10146.606      4312.4422    
     54890   589.20399     -919.43234      8848.7651      4318.1806    
     54900   572.73163     -919.12346      6945.4723      4326.6889    
     54910   624.70147     -920.71042      4320.1553      4337.3883    
     54920   618.65652     -920.68264      1556.0573      4349.4897    
     54930   566.02205     -919.33898     -1172.9474      4362.1326    
     54940   572.8404      -919.6093      -4044.9057      4374.441     
     54950   614.07479     -920.81432     -6758.1646      4385.4954    
     54960   591.9505      -920.25617     -8824.4995      4394.4213    
     54970   563.71874     -919.52947     -10245.942      4400.532     
     54980   549.45751     -919.18973     -10866.511      4403.3613    
     54990   553.28733     -919.3525      -10787.446      4402.6969    
     55000   581.37941     -920.19242     -9797.6138      4398.578     
     55010   602.71299     -920.8525      -8034.0594      4391.3337    
     55020   568.36223     -919.96287     -5577.2238      4381.5545    
     55030   575.23476     -920.19776     -3078.419       4370.0314    
     55040   601.36474     -920.94167     -561.64592      4357.5835    
     55050   574.91631     -920.19599      2445.2171      4345.0393    
     55060   600.22345     -920.86002      5323.2623      4333.3314    
     55070   613.57991     -921.1747       7623.6934      4323.3408    
     55080   568.12558     -919.8531       9312.7583      4315.7658    
     55090   564.07711     -919.67853      10207.734      4311.1       
     55100   567.42159     -919.69642      10470.954      4309.6027    
     55110   549.82273     -919.11712      10136.082      4311.3421    
     55120   580.58864     -919.85321      8854.6897      4316.1979    
     55130   620.15904     -920.79334      7099.564       4323.7897    
     55140   576.95614     -919.41023      5332.9717      4333.5932    
     55150   604.1895      -919.96187      2963.5257      4345.044     
     55160   642.36369     -920.77056      151.02304      4357.4079    
     55170   600.53963     -919.34754     -2718.9412      4369.8029    
     55180   592.47509     -918.86381     -5537.8871      4381.3092    
     55190   612.26549     -919.14202     -7790.0551      4391.0319    
     55200   617.70469     -919.03326     -9334.3094      4398.2405    
     55210   625.25743     -919.01692     -10182.033      4402.4367    
     55220   609.4284      -918.39252     -10456.395      4403.3477    
     55230   616.70129     -918.45303     -10029.78       4400.9031    
     55240   626.1032      -918.60323     -8563.3781      4395.2803    
     55250   614.36666     -918.19273     -6664.2009      4386.9633    
     55260   627.29311     -918.48027     -4448.9022      4376.597     
     55270   651.01353     -919.07189     -1827.42        4364.9232    
     55280   653.08394     -919.07057      1068.3862      4352.7921    
     55290   647.49647     -918.86862      3814.2021      4341.1191    
     55300   626.07415     -918.24095      6153.4889      4330.7535    
     55310   586.69324     -917.11945      8201.9687      4322.4064    
     55320   626.32964     -918.20024      9755.7712      4316.6791    
     55330   676.7129      -919.61352      10426.188      4314.0072    
     55340   644.72931     -918.79793      10268.533      4314.5689    
     55350   628.46781     -918.46695      9216.6098      4318.2876    
     55360   648.63074     -919.18703      7475.1842      4324.8284    
     55370   645.13804     -919.28335      5343.1853      4333.6515    
     55380   640.98536     -919.38889      2894.3424      4344.0866    
     55390   607.13945     -918.67421      389.45146      4355.3722    
     55400   591.95562     -918.45988     -2395.1912      4366.7036    
     55410   610.47645     -919.16478     -4901.6804      4377.2117    
     55420   604.51904     -919.18723     -6991.746       4386.0929    
     55430   565.17557     -918.2612      -8302.629       4392.6947    
     55440   599.77751     -919.38204     -9150.044       4396.5929    
     55450   610.06627     -919.83566     -9282.1113      4397.5437    
     55460   597.49399     -919.66023     -8772.1115      4395.5284    
     55470   612.22877     -920.24565     -7839.4891      4390.7386    
     55480   600.46237     -920.09515     -6362.3982      4383.5172    
     55490   563.88422     -919.22602     -4386.8241      4374.3749    
     55500   613.45968     -920.72558     -2308.8734      4363.9612    
     55510   592.29081     -920.23315      394.84766      4352.9806    
     55520   577.47353     -919.88198      3089.3504      4342.2773    
     55530   611.40728     -920.85953      5227.5961      4332.6778    
     55540   591.44874     -920.33044      6922.1959      4324.8303    
     55550   530.06983     -918.63398      8253.4038      4319.233     
     55560   558.93039     -919.42658      8698.4217      4316.2421    
     55570   588.67297     -920.23548      8808.642       4315.974     
     55580   587.54261     -920.19347      8486.8953      4318.4279    
     55590   609.1875      -920.79588      7286.9814      4323.4636    
     55600   581.48176     -920.03224      5771.3479      4330.7083    
     55610   582.40586     -920.0579       3662.1705      4339.6677    
     55620   608.14269     -920.75724      1240.9496      4349.6815    
     55630   576.56236     -919.84859     -969.76991      4359.9966    
     55640   582.44854     -919.96282     -3326.1572      4369.8956    
     55650   625.47459     -921.09413     -5511.5441      4378.6425    
     55660   579.06237     -919.74359     -7005.026       4385.5606    
     55670   537.68826     -918.53279     -7894.2437      4390.1845    
     55680   597.24294     -920.11931     -8578.7538      4392.2345    
     55690   583.13393     -919.65937     -8390.7611      4391.5458    
     55700   580.69263     -919.53692     -7575.1344      4388.2075    
     55710   614.10259     -920.41324     -6255.7825      4382.5179    
     55720   583.20253     -919.50526     -4288.24        4374.9466    
     55730   580.94489     -919.38646     -2287.5724      4366.1374    
     55740   636.785       -920.86855     -468.78007      4356.7419    
     55750   603.34744     -919.86901      1619.2896      4347.3621    
     55760   563.46861     -918.68854      3681.6286      4338.6456    
     55770   594.12961     -919.45231      5461.6574      4331.2132    
     55780   600.72589     -919.53765      6902.1129      4325.5925    
     55790   617.61549     -919.92015      7521.6848      4322.1803    
     55800   614.12315     -919.75552      7740.7498      4321.1432    
     55810   583.59851     -918.85906      7786.1301      4322.5211    
     55820   607.65827     -919.48895      6893.9945      4326.2705    
     55830   632.58972     -920.15071      5424.1563      4332.1028    
     55840   593.52186     -919.04466      3886.6805      4339.5549    
     55850   620.72873     -919.78021      1855.2568      4348.1186    
     55860   652.87673     -920.65291     -375.11367      4357.1606    
     55870   580.90335     -918.63854     -2444.5859      4365.9806    
     55880   574.60955     -918.43756     -4452.7688      4373.9209    
     55890   628.95341     -919.90989     -6199.8639      4380.3537    
     55900   559.17248     -917.93375     -6815.6644      4384.7676    
     55910   566.78446     -918.1039      -7008.7029      4386.9642    
     55920   651.95289     -920.41733     -7022.9725      4386.9024    
     55930   612.85242     -919.2858      -6252.0225      4384.634     
     55940   593.6894      -918.7155      -5195.9917      4380.4232    
     55950   656.16543     -920.3978      -4044.0819      4374.6346    
     55960   638.355       -919.83876     -2293.442       4367.6824    
     55970   603.76586     -918.80749     -502.10242      4360.1271    
     55980   651.58395     -920.04844      706.93055      4352.5243    
     55990   614.39702     -918.91672      2179.4014      4345.2834    
     56000   564.29981     -917.42069      3865.1038      4338.8558    
     56010   637.8222      -919.33594      5185.6672      4333.7328    
     56020   651.23829     -919.57243      6151.7224      4330.3019    
     56030   610.90313     -918.34305      6547.8866      4328.8255    
     56040   632.31333     -918.84831      6134.57        4329.3877    
     56050   631.47454     -918.7506       5520.8097      4331.8492    
     56060   595.51443     -917.69427      4758.2493      4335.9968    
     56070   633.39174     -918.69583      3343.0281      4341.5597    
     56080   638.50299     -918.79175      1958.4878      4348.1046    
     56090   619.68849     -918.23737      710.24504      4355.1882    
     56100   669.17749     -919.59293     -857.9671       4362.4018    
     56110   700.43051     -920.4773      -2667.8842      4369.2493    
     56120   607.36051     -917.94859     -3969.4205      4375.1856    
     56130   576.34855     -917.14893     -5196.6784      4379.7901    
     56140   634.74574     -918.83803     -6193.2752      4382.6906    
     56150   635.73856     -918.95766     -6278.5789      4383.6138    
     56160   620.49482     -918.65538     -5932.8791      4382.5402    
     56170   637.30357     -919.27041     -5290.814       4379.6098    
     56180   611.91499     -918.73761     -4232.6867      4375.0581    
     56190   581.80385     -918.06833     -2751.4801      4369.2521    
     56200   642.18931     -919.91756     -1520.3685      4362.66      
     56210   641.27541     -920.08927      113.42303      4355.7073    
     56220   564.34121     -918.13705      1972.7471      4348.9109    
     56230   613.13466     -919.65823      3041.5493      4342.8191    
     56240   657.23521     -921.07607      3842.96        4337.7674    
     56250   550.68547     -918.29929      5025.0838      4334.0093    
     56260   578.84631     -919.23839      5354.8059      4331.8479    
     56270   613.92508     -920.37146      5383.3626      4331.3812    
     56280   566.84737     -919.21332      5406.3971      4332.6033    
     56290   600.37985     -920.28298      4760.1462      4335.4789    
     56300   661.32248     -922.1301       3660.5871      4339.7976    
     56310   589.87403     -920.31143      2604.5844      4345.2194    
     56320   556.48775     -919.52348      946.47571      4351.3817    
     56330   593.50984     -920.67047     -1104.6892      4357.7631    
     56340   534.201       -919.11083     -2388.9355      4363.7531    
     56350   534.12919     -919.16132     -3625.618       4368.9213    
     56360   573.0413      -920.26538     -4448.9216      4372.8966    
     56370   568.7885      -920.15394     -4545.838       4375.4394    
     56380   591.86063     -920.79182     -4710.0915      4376.5105    
     56390   634.68656     -921.98346     -4921.4195      4376.0754    
     56400   574.50911     -920.3241      -4396.9163      4374.1123    
     56410   550.81951     -919.67222     -3663.6165      4370.7884    
     56420   596.99155     -920.94389     -2840.3727      4366.3531    
     56430   565.19086     -920.0321      -1640.251       4361.0943    
     56440   565.45112     -919.99304     -338.42724      4355.3961    
     56450   597.12849     -920.80114      929.25082      4349.6692    
     56460   546.90851     -919.31011      2520.902       4344.3255    
     56470   567.7374      -919.76672      3681.6846      4339.8329    
     56480   628.73305     -921.2994       4104.9901      4336.5313    
     56490   599.86221     -920.32282      4499.8249      4334.5568    
     56500   534.28617     -918.32413      4799.2002      4334.0117    
     56510   610.58575     -920.23339      4507.8529      4334.9551    
     56520   611.51827     -920.00147      4238.6668      4337.3045    
     56530   590.51189     -919.16363      3570.3077      4340.948     
     56540   642.20022     -920.32986      2411.3355      4345.6655    
     56550   635.21274     -919.86434      1393.2021      4351.1039    
     56560   607.18103     -918.84711      395.02398      4356.9377    
     56570   642.79945     -919.61603     -1321.6177      4362.8234    
     56580   584.06242     -917.7837      -2747.1811      4368.252     
     56590   566.07403     -917.1104      -3868.3618      4372.7711    
     56600   653.79845     -919.37295     -4714.1698      4376.0319    
     56610   652.79465     -919.19924     -4816.0607      4377.7894    
     56620   630.97697     -918.501       -4630.6217      4378.0106    
     56630   677.68972     -919.75117     -4748.9682      4376.7468    
     56640   614.40947     -917.98317     -3889.5783      4374.0242    
     56650   595.31949     -917.45954     -2736.5872      4370.1087    
     56660   669.99358     -919.54809     -1741.3505      4365.3691    
     56670   655.6969      -919.19212     -604.18658      4360.1417    
     56680   597.46471     -917.62799      493.10145      4354.7861    
     56690   647.0369      -919.0627       1236.9781      4349.6369    
     56700   625.11839     -918.52165      2321.0998      4344.9511    
     56710   563.85746     -916.87704      3532.8383      4341.0547    
     56720   641.40996     -919.08145      4038.477       4338.2866    
     56730   668.32916     -919.90026      4540.6044      4336.8157    
     56740   607.38268     -918.29727      5059.8748      4336.7863    
     56750   662.35373     -919.93036      4663.2248      4338.3185    
     56760   688.32623     -920.79541      3783.0474      4341.2909    
     56770   609.27092     -918.76213      2767.3989      4345.4299    
     56780   599.62858     -918.64454      1128.9331      4350.3924    
     56790   602.21801     -918.8495      -397.7745       4355.6818    
     56800   579.84005     -918.33856     -1494.0403      4360.8258    
     56810   588.07812     -918.65774     -2503.9009      4365.464     
     56820   591.54723     -918.82785     -3282.8909      4369.2861    
     56830   599.09258     -919.10099     -3903.7688      4372.048     
     56840   628.2917      -919.97686     -4117.1659      4373.5648    
     56850   636.81511     -920.29351     -3910.7283      4373.7776    
     56860   604.90515     -919.4983      -3484.2988      4372.7576    
     56870   594.8459      -919.30857     -3131.0012      4370.6421    
     56880   600.651       -919.55323     -2731.3243      4367.5574    
     56890   609.96765     -919.8927      -2008.1301      4363.6462    
     56900   614.79985     -920.10779     -778.37871      4359.1556    
     56910   597.04894     -919.69365      403.62113      4354.4615    
     56920   586.16211     -919.45872      1359.9103      4349.9352    
     56930   609.62221     -920.1716       2094.9719      4345.8728    
     56940   601.9103      -920.01753      2928.6739      4342.5112    
     56950   568.46089     -919.1424       3691.8197      4340.0999    
     56960   564.60442     -919.07333      3811.3349      4338.8501    
     56970   593.78591     -919.91022      3549.4546      4338.7982    
     56980   594.9936      -919.9648       3402.1087      4339.8684    
     56990   600.25725     -920.13292      3144.9851      4342.0021    
     57000   605.82901     -920.31104      2390.698       4345.1003    
     57010   592.43912     -919.9628       1366.3332      4348.9318    
     57020   579.89053     -919.63109      311.60385      4353.1775    
     57030   587.58927     -919.85123     -501.69975      4357.5119    
     57040   593.16739     -920.00317     -1212.9561      4361.6723    
     57050   591.17767     -919.93834     -1968.5155      4365.4305    
     57060   610.18051     -920.45245     -2783.917       4368.5476    
     57070   625.24002     -920.86199     -3304.3404      4370.7782    
     57080   595.55946     -920.04014     -3568.7149      4371.9595    
     57090   556.50342     -918.9591      -3877.5797      4372.0015    
     57100   543.64713     -918.58605     -3773.4359      4370.8272    
     57110   587.23688     -919.75        -3112.5463      4368.4827    
     57120   601.38101     -920.06051     -2171.0593      4365.1774    
     57130   602.17352     -919.9709      -1239.2574      4361.2094    
     57140   630.25348     -920.60653     -286.9082       4356.8819    
     57150   613.92982     -919.98147      869.54209      4352.5029    
     57160   570.76085     -918.59403      1899.4542      4348.4282    
     57170   596.61347     -919.0926       2508.6302      4344.9704    
     57180   631.23293     -919.79796      3048.4999      4342.3254    
     57190   610.08039     -918.95114      3679.6952      4340.6623    
     57200   611.83407     -918.75519      3780.445       4340.1511    
     57210   639.44113     -919.28328      3600.6778      4340.8292    
     57220   647.56442     -919.29199      3263.0556      4342.6361    
     57230   639.0585      -918.87526      2839.948       4345.4647    
     57240   622.17483     -918.25735      2278.3207      4349.1821    
     57250   652.23496     -918.9654       1005.3101      4353.588     
     57260   653.36739     -918.89258     -465.72699      4358.2964    
     57270   605.17997     -917.4775      -1532.6646      4362.8591    
     57280   598.8067      -917.23376     -2341.496       4366.9329    
     57290   647.65501     -918.52692     -3110.0571      4370.2518    
     57300   642.99484     -918.35174     -3319.7355      4372.5936    
     57310   647.88251     -918.47126     -3515.5115      4373.8733    
     57320   683.73901     -919.48996     -3566.1754      4374.0382    
     57330   620.83375     -917.80421     -3113.3815      4373.0883    
     57340   614.03553     -917.6948      -2725.0502      4371.1551    
     57350   685.41098     -919.7873      -2559.5275      4368.3626    
     57360   646.93801     -918.87547     -1901.9363      4364.789     
     57370   593.41647     -917.56163     -877.991        4360.645     
     57380   630.69271     -918.77991      144.09677      4356.2488    
     57390   625.42717     -918.83754      1177.2979      4351.9241    
     57400   593.38829     -918.1505       2096.3035      4347.9947    
     57410   638.7957      -919.62451      2660.1664      4344.7377    
     57420   632.0319      -919.66903      3316.32        4342.3406    
     57430   613.06024     -919.37553      3824.6703      4340.9976    
     57440   626.55118     -919.98539      3764.9627      4340.8504    
     57450   610.80182     -919.77817      3298.5802      4341.8803    
     57460   588.12891     -919.35555      2745.1716      4343.9494    
     57470   586.75295     -919.49458      2000.1227      4346.8766    
     57480   584.28839     -919.57545      1096.6098      4350.428     
     57490   570.67116     -919.31273      332.60042      4354.3293    
     57500   595.28023     -920.08772     -552.36191      4358.3297    
     57510   597.10599     -920.2131      -1440.0696      4362.1535    
     57520   588.49502     -920.03555     -2086.3067      4365.5259    
     57530   595.75221     -920.28729     -2712.0977      4368.2343    
     57540   603.15584     -920.53704     -3188.4563      4370.0856    
     57550   592.25128     -920.27529     -3414.2936      4370.9293    
     57560   584.25694     -920.08882     -3348.0889      4370.6979    
     57570   590.46569     -920.29        -3192.8008      4369.4085    
     57580   584.6996      -920.15245     -2758.8114      4367.1198    
     57590   568.02186     -919.70149     -2076.8096      4363.9742    
     57600   567.49145     -919.68361     -1496.9983      4360.1786    
     57610   563.5563      -919.55293     -431.07048      4355.9403    
     57620   552.97075     -919.21363      993.24751      4351.5959    
     57630   601.02137     -920.48194      1889.7429      4347.5655    
     57640   628.00808     -921.15835      2634.5881      4344.1446    
     57650   576.19441     -919.65306      3422.7276      4341.5699    
     57660   592.47923     -920.03947      3677.7945      4340.0671    
     57670   641.5678      -921.33373      3613.4104      4339.7194    
     57680   583.11562     -919.65161      3732.7172      4340.5212    
     57690   569.65341     -919.22172      3292.8372      4342.4847    
     57700   628.92955     -920.79899      2252.0084      4345.4707    
     57710   582.17886     -919.42523      1424.1725      4349.1785    
     57720   554.70362     -918.58045      539.54955      4353.3382    
     57730   624.17474     -920.40009     -650.68468      4357.6635    
     57740   590.49935     -919.33388     -1566.2128      4361.7953    
     57750   525.37577     -917.38294     -2098.2901      4365.4479    
     57760   652.39462     -920.72429     -2956.7549      4368.4237    
     57770   670.35304     -920.99002     -3211.4146      4370.482     
     57780   575.36026     -918.14296     -3036.5308      4371.5348    
     57790   603.52333     -918.70724     -3197.6727      4371.6122    
     57800   668.94294     -920.25802     -3064.9134      4370.6846    
     57810   629.38319     -918.8861      -2239.2906      4368.8099    
     57820   643.42338     -919.01843     -1629.7325      4366.2224    
     57830   653.62706     -919.03816     -1092.7817      4363.1242    
     57840   609.76355     -917.57748     -452.66058      4359.6933    
     57850   612.01067     -917.40993      86.414563      4356.1252    
     57860   629.82873     -917.67203      941.32526      4352.6048    
     57870   621.7798      -917.22521      1948.32        4349.3963    
     57880   683.14345     -918.72613      2723.5028      4346.8055    
     57890   714.45307     -919.43209      3189.2716      4345.0718    
     57900   621.38983     -916.75095      3547.5835      4344.3509    
     57910   672.758       -918.12525      3234.8648      4344.7344    
     57920   723.53012     -919.52912      2837.7213      4346.1419    
     57930   606.54922     -916.32533      2574.3667      4348.4581    
     57940   613.75945     -916.58527      1609.1895      4351.5749    
     57950   698.19455     -919.01084      349.18424      4355.199     
     57960   651.52495     -917.83378     -90.830757      4358.9726    
     57970   636.31942     -917.55231     -678.0612       4362.7224    
     57980   690.73192     -919.23609     -1793.9114      4366.2519    
     57990   641.75963     -918.0765      -2496.5826      4369.2355    
     58000   638.71745     -918.19265     -2944.1541      4371.4407    
     58010   681.4058      -919.5981      -3431.161       4372.7128    
     58020   612.01232     -917.88265     -3514.0232      4372.9106    
     58030   595.02353     -917.58047     -3721.2208      4371.9871    
     58040   627.98313     -918.63616     -3469.6197      4369.8967    
     58050   613.70289     -918.35536     -2503.4884      4366.7242    
     58060   620.42659     -918.63666     -1298.3264      4362.766     
     58070   638.03543     -919.20939     -298.55946      4358.3943    
     58080   642.21833     -919.40796      785.71603      4353.9371    
     58090   644.21683     -919.55211      1872.029       4349.7345    
     58100   636.15443     -919.42491      2464.3822      4346.1121    
     58110   613.98985     -918.91153      2909.5919      4343.2679    
     58120   595.62476     -918.49751      3291.3538      4341.3447    
     58130   607.00031     -918.90627      3387.6334      4340.4529    
     58140   605.57323     -918.9582       3388.5536      4340.6276    
     58150   613.47355     -919.27375      3362.6449      4341.8772    
     58160   611.80123     -919.32821      2893.2239      4344.1815    
     58170   635.61382     -920.10172      2010.9116      4347.3988    
     58180   635.79077     -920.23745      1106.0139      4351.2675    
     58190   603.90861     -919.49314      72.024412      4355.4987    
     58200   578.81724     -918.92944     -1155.1958      4359.766     
     58210   575.63502     -918.95849     -2207.4612      4363.6902    
     58220   572.17402     -918.96346     -2955.3041      4366.9367    
     58230   587.75178     -919.48585     -3409.4717      4369.2642    
     58240   598.87169     -919.88162     -3481.3946      4370.5265    
     58250   607.67952     -920.21589     -3250.6581      4370.6948    
     58260   625.71755     -920.81895     -2935.1112      4369.8342    
     58270   606.76633     -920.40754     -2554.8898      4368.043     
     58280   586.5646      -919.96319     -2169.1127      4365.4408    
     58290   599.04997     -920.42629     -1861.1379      4362.1442    
     58300   572.68114     -919.8067      -1183.2468      4358.2643    
     58310   520.66978     -918.44801     -57.314529      4354.0198    
     58320   566.00086     -919.76097      886.33159      4349.7464    
     58330   630.4917      -921.59676      1934.5335      4345.7528    
     58340   585.74115     -920.40119      3180.4529      4342.3722    
     58350   589.28855     -920.54732      3781.1816      4339.9729    
     58360   607.01663     -921.09149      3637.0133      4338.7416    
     58370   551.89919     -919.60943      3449.5589      4338.6575    
     58380   549.17712     -919.56732      3063.2612      4339.6588    
     58390   581.21744     -920.47191      2480.2975      4341.6292    
     58400   566.29636     -920.05627      1792.4487      4344.3925    
     58410   560.46294     -919.87559      1057.8815      4347.7406    
     58420   576.1255      -920.26837      369.79462      4351.4464    
     58430   573.1658      -920.11839      10.11782       4355.3062    
     58440   604.94774     -920.91131     -650.95364      4359.1855    
     58450   606.57402     -920.84552     -1475.926       4362.8815    
     58460   603.52557     -920.63778     -2330.7854      4366.1338    
     58470   622.77054     -921.0356      -3067.1431      4368.6696    
     58480   572.92599     -919.50319     -3432.3602      4370.257     
     58490   545.93932     -918.59082     -3821.3689      4370.7591    
     58500   587.06239     -919.52703     -4009.158       4370.0531    
     58510   606.45176     -919.81733     -3434.8744      4368.0896    
     58520   560.57963     -918.28298     -2275.6213      4365.0426    
     58530   585.68875     -918.71019     -1269.8711      4361.2541    
     58540   659.27418     -920.45251     -266.25653      4357.0476    
     58550   619.729       -919.07567      981.83542      4352.7497    
     58560   599.18725     -918.27631      2016.8475      4348.7395    
     58570   649.98743     -919.47955      2784.4707      4345.344     
     58580   662.57001     -919.65416      3483.61        4342.8144    
     58590   643.74956     -919.01111      3861.4929      4341.3689    
     58600   643.97079     -918.94156      3640.8758      4341.1205    
     58610   634.8274      -918.64377      3312.4405      4342.0256    
     58620   640.02283     -918.77318      2861.5434      4343.9866    
     58630   622.07525     -918.2817       2177.8478      4346.8704    
     58640   599.68896     -917.67642      1183.3765      4350.4642    
     58650   621.22918     -918.29411      256.25586      4354.4735    
     58660   630.96569     -918.5918      -588.34533      4358.6089    
     58670   608.34282     -918.00063     -1267.857       4362.6063    
     58680   616.30387     -918.2635      -2134.1596      4366.2343    
     58690   665.46205     -919.68577     -2927.9811      4369.224     
     58700   664.25989     -919.74728     -3319.5402      4371.3229    
     58710   620.74948     -918.66047     -3228.7234      4372.4003    
     58720   641.64836     -919.38636     -3296.4463      4372.4521    
     58730   613.97023     -918.77821     -3208.4428      4371.4591    
     58740   603.61723     -918.65574     -2945.4639      4369.4388    
     58750   614.65116     -919.13098     -2458.8533      4366.4674    
     58760   597.78992     -918.83031     -1555.0425      4362.6983    
     58770   596.96304     -918.9627      -513.78018      4358.4055    
     58780   636.62176     -920.22292      199.90546      4353.8997    
     58790   587.41766     -919.01292      1187.5674      4349.4266    
     58800   565.07472     -918.51869      2173.9002      4345.2876    
     58810   643.51466     -920.81593      2974.6695      4341.7923    
     58820   629.16204     -920.54669      3917.1952      4339.2095    
     58830   572.4631      -919.09053      4419.4943      4337.8277    
     58840   609.7595      -920.23176      4137.5288      4337.8082    
     58850   618.02505     -920.56379      3795.2244      4339.1029    
     58860   580.20668     -919.60613      3230.9993      4341.6187    
     58870   578.71305     -919.63794      2077.0519      4345.1834    
     58880   566.5318      -919.34927      1017.3883      4349.4716    
     58890   540.35717     -918.64082      125.16535      4354.1614    
     58900   594.37321     -920.13605     -885.09046      4358.9676    
     58910   627.51176     -921.04248     -1711.838       4363.5821    
     58920   623.38456     -920.92561     -2550.5637      4367.7301    
     58930   605.64324     -920.44155     -3621.8838      4371.1272    
     58940   569.339       -919.43896     -4316.076       4373.4354    
     58950   574.85388     -919.58921     -4424.4692      4374.4172    
     58960   585.04597     -919.85954     -4295.4312      4374.0018    
     58970   585.53521     -919.85731     -3925.686       4372.2087    
     58980   577.43045     -919.61181     -3332.9746      4369.1327    
     58990   590.30132     -919.94298     -2458.2722      4364.9436    
     59000   594.96094     -920.0403      -1170.0655      4359.9094    
     59010   573.27283     -919.39766      332.24631      4354.4227    
     59020   599.40618     -920.07298      1483.3418      4348.938     
     59030   629.22504     -920.84828      2381.0298      4343.8221    
     59040   580.52325     -919.44874      3681.9628      4339.3858    
     59050   575.00167     -919.24711      4560.5017      4336.0235    
     59060   617.62602     -920.37619      4859.2839      4334.0297    
     59070   596.115       -919.72962      4837.0125      4333.5299    
     59080   566.03818     -918.84902      4788.2925      4334.56      
     59090   615.7043      -920.17862      4315.9503      4337.1246    
     59100   626.83739     -920.43859      3515.4355      4341.1174    
     59110   592.84327     -919.45587      2392.4038      4346.3242    
     59120   599.91596     -919.6119       822.96992      4352.4166    
     59130   604.72207     -919.69428     -894.52967      4358.9278    
     59140   585.95329     -919.11314     -2483.3616      4365.3259    
     59150   580.81925     -918.89671     -3678.294       4371.1053    
     59160   615.67705     -919.77689     -4650.6376      4375.8554    
     59170   618.76028     -919.76839     -5261.1342      4379.2389    
     59180   608.52824     -919.39615     -5557.4543      4381.0191    
     59190   612.99441     -919.43258     -5521.4165      4381.0575    
     59200   621.67569     -919.58457     -5114.7299      4379.3214    
     59210   602.20853     -918.95093     -4299.0428      4375.9006    
     59220   598.19933     -918.73353     -3296.0168      4371.0134    
     59230   630.30017     -919.49186     -2205.307       4364.9458    
     59240   637.89512     -919.54388     -591.06583      4358.0369    
     59250   611.63453     -918.63868      1381.0652      4350.7811    
     59260   595.76009     -917.99851      3149.8077      4343.7831    
     59270   642.8979      -919.07304      4581.6652      4337.6099    
     59280   685.6031      -920.00234      5601.9397      4332.7292    
     59290   627.42194     -918.15411      6487.2056      4329.5042    
     59300   597.9156      -917.13468      6772.1053      4328.2382    
     59310   635.08442     -917.96692      6400.4837      4329.0732    
     59320   666.43585     -918.64368      5691.4881      4331.9589    
     59330   646.25322     -917.92137      4956.1644      4336.7446    
     59340   654.7691      -918.03075      3613.0631      4343.2356    
     59350   669.3538      -918.33136      1945.148       4351.0702    
     59360   686.01431     -918.72188      59.216419      4359.7596    
     59370   687.83758     -918.7401      -1984.9815      4368.7291    
     59380   663.06196     -918.06091     -4168.6494      4377.3215    
     59390   648.82416     -917.70774     -6028.8769      4384.8249    
     59400   649.843       -917.81459     -7306.896       4390.6032    
     59410   617.01789     -917.01714     -8145.5757      4394.1775    
     59420   608.24603     -916.91299     -8648.8779      4395.2051    
     59430   643.20604     -918.06434     -8622.9113      4393.4551    
     59440   635.40762     -918.07263     -7536.9841      4388.8844    
     59450   633.90784     -918.2935      -5573.5196      4381.7766    
     59460   631.287       -918.5035      -3187.9746      4372.7076    
     59470   634.8025      -918.8914      -897.64832      4362.3963    
     59480   669.31559     -920.15131      1453.8932      4351.5693    
     59490   646.23253     -919.82031      3977.172       4340.9789    
     59500   585.75626     -918.39391      6198.8683      4331.4208    
     59510   636.01296     -920.007        7434.7603      4323.5939    
     59520   618.82676     -919.72992      8580.8183      4317.9484    
     59530   547.90283     -917.91225      9470.6773      4314.8755    
     59540   605.63348     -919.63527      9486.7213      4314.692     
     59550   661.40371     -921.31803      8599.7148      4317.466     
     59560   566.80012     -918.82333      7359.01        4323.0143    
     59570   559.33388     -918.72238      5205.3881      4330.9963    
     59580   594.82516     -919.78414      2956.7007      4340.8246    
     59590   569.41997     -919.12608      928.98209      4351.8426    
     59600   609.95481     -920.27312     -1651.1077      4363.4049    
     59610   657.99404     -921.61941     -4363.1204      4374.702     
     59620   582.07334     -919.52268     -6410.8565      4384.8662    
     59630   566.35257     -919.08726     -8336.3198      4393.1745    
     59640   610.50082     -920.30917     -10012.888      4398.9508    
     59650   570.69173     -919.20945     -10598.726      4401.6126    
     59660   546.21778     -918.54184     -10392.252      4400.8924    
     59670   601.44895     -920.09134     -9447.2804      4396.7965    
     59680   601.77255     -920.11744     -7436.3257      4389.5987    
     59690   618.93666     -920.61766     -5231.7138      4379.8899    
     59700   607.87022     -920.33147     -2865.0813      4368.3651    
     59710   561.77357     -919.05568     -172.24593      4355.7819    
     59720   571.24613     -919.28622      2612.6128      4342.9933    
     59730   626.54823     -920.75681      5328.0734      4330.8833    
     59740   595.25757     -919.8076       8199.2952      4320.3252    
     59750   572.66316     -919.09621      10432.636      4312.2055    
     59760   614.11291     -920.16581      11406.921      4307.2203    
     59770   608.73115     -919.95254      11700.851      4305.7167    
     59780   588.86511     -919.36348      11380.103      4307.8309    
     59790   614.61884     -920.05823      9819.8437      4313.495     
     59800   602.18053     -919.69782      7434.6526      4322.2952    
     59810   543.30415     -918.03456      4759.8769      4333.5566    
     59820   581.82664     -919.03558      1817.1168      4346.4799    
     59830   635.12278     -920.38828     -1053.3687      4360.1666    
     59840   609.0087      -919.50378     -3607.9335      4373.7154    
     59850   632.95135     -919.98987     -6383.8776      4386.2691    
     59860   672.49607     -920.893       -8880.1581      4396.9183    
     59870   637.16331     -919.73912     -10544.009      4404.8284    
     59880   570.68147     -917.75414     -11550.36       4409.407     
     59890   589.12411     -918.14102     -12054.244      4410.2801    
     59900   592.26764     -918.10297     -11639.237      4407.2647    
     59910   593.96038     -918.03113     -10181.825      4400.4792    
     59920   607.79578     -918.28532     -7712.464       4390.3905    
     59930   626.85067     -918.66329     -4661.7749      4377.7897    
     59940   633.84937     -918.67979     -1341.4944      4363.6643    
     59950   657.96127     -919.15293      1931.205       4349.0778    
     59960   676.99695     -919.47585      5379.066       4335.0879    
     59970   671.40365     -919.1325       8378.176       4322.7606    
     59980   660.11851     -918.66874      10555.386      4313.018     
     59990   631.04673     -917.75681      11829.687      4306.5227    
     60000   610.17796     -917.11528      12232.953      4303.6616    
     60010   631.85147     -917.6919       12037.753      4304.572     
     60020   654.08059     -918.32723      11193.068      4309.2064    
     60030   635.3644      -917.8687       9383.7013      4317.32      
     60040   646.46227     -918.27202      6890.127       4328.3941    
     60050   663.5721      -918.86376      3907.879       4341.6852    
     60060   699.52536     -920.01563      290.80631      4356.2677    
     60070   651.49251     -918.8755      -3238.272       4371.0233    
     60080   574.58901     -916.93569     -6397.2643      4384.8194    
     60090   584.20423     -917.387       -9193.673       4396.6159    
     60100   639.756       -919.15166     -11207.92       4405.4943    
     60110   608.805       -918.56383     -11997.701      4410.7919    
     60120   586.95395     -918.24476     -12005.733      4412.2234    
     60130   639.76066     -920.0311      -11744.091      4409.7649    
     60140   640.17257     -920.39629     -10577.411      4403.5338    
     60150   596.18038     -919.51116     -8523.9729      4393.9299    
     60160   588.76452     -919.58919     -6047.0495      4381.6316    
     60170   597.2658      -920.05365     -3058.1805      4367.4697    
     60180   576.21673     -919.62689      426.48189      4352.429     
     60190   580.67622     -919.84045      3796.2052      4337.6129    
     60200   584.67982     -919.98761      6892.3108      4324.0791    
     60210   590.90697     -920.1658       9532.6906      4312.7712    
     60220   569.88059     -919.57235      11757.177      4304.4831    
     60230   564.18717     -919.40463      13059.917      4299.8486    
     60240   590.72362     -920.14383      13220.824      4299.2347    
     60250   632.72543     -921.34454      12107.184      4302.6651    
     60260   585.19575     -920.08833      10621.888      4309.8225    
     60270   555.49112     -919.33034      8252.6514      4320.2373    
     60280   609.82727     -920.88629      4840.7038      4333.1797    
     60290   580.34042     -920.08103      1381.8466      4347.6206    
     60300   556.63659     -919.39905     -1788.783       4362.4779    
     60310   607.02126     -920.73286     -4822.9424      4376.7323    
     60320   609.93059     -920.72321     -7627.8232      4389.4058    
     60330   549.04053     -918.93452     -9910.4162      4399.5944    
     60340   562.71555     -919.20981     -11700.762      4406.552     
     60350   599.65253     -920.12993     -12543.428      4409.7179    
     60360   564.41545     -919.06229     -12190.418      4408.845     
     60370   576.11656     -919.31387     -11050.098      4404.0675    
     60380   623.59808     -920.55458     -9196.7479      4395.7954    
     60390   598.08055     -919.76443     -6477.8097      4384.6826    
     60400   588.81746     -919.41409     -3487.5082      4371.6283    
     60410   620.97884     -920.17782     -132.55469      4357.6315    
     60420   632.14753     -920.32658      2996.2679      4343.7579    
     60430   612.24662     -919.60166      5563.295       4330.9821    
     60440   586.41544     -918.70692      7932.6593      4320.097     
     60450   571.30304     -918.10043      10064.411      4311.8017    
     60460   586.5264      -918.32853      11391.922      4306.6914    
     60470   632.27268     -919.40557      11741.059      4305.126     
     60480   648.87301     -919.69647      11415.779      4307.1823    
     60490   634.15541     -919.16018      10211.383      4312.7219    
     60500   630.53746     -918.96335      8157.2326      4321.357     
     60510   621.36787     -918.62354      5848.8554      4332.4617    
     60520   621.97264     -918.55012      2987.3205      4345.3006    
     60530   657.99565     -919.44469     -481.63012      4358.9656    
     60540   613.65976     -918.09418     -3425.9361      4372.392     
     60550   621.19672     -918.17897     -5999.5683      4384.6303    
     60560   685.03557     -919.82174     -8486.0182      4394.8421    
     60570   636.02887     -918.36014     -10235.226      4402.2571    
     60580   584.13613     -916.85567     -11164.295      4406.3281    
     60590   623.87922     -917.91635     -11312.951      4406.781     
     60600   644.88232     -918.47899     -10370.745      4403.6233    
     60610   626.60488     -917.98211     -8740.1616      4397.1954    
     60620   643.49113     -918.4839      -6634.3642      4388.0738    
     60630   655.64891     -918.87274     -4208.9976      4376.9788    
     60640   647.7372      -918.72709     -1438.2262      4364.7301    
     60650   654.61117     -919.01872      1355.2174      4352.2224    
     60660   639.83297     -918.74688      4012.3062      4340.339     
     60670   576.69962     -917.14773      6290.1141      4329.8915    
     60680   619.59261     -918.50881      8041.5406      4321.5524    
     60690   677.10492     -920.34459      9370.4654      4315.8213    
     60700   596.2627      -918.3821       10382.251      4313.0665    
     60710   603.27348     -918.86953      10129.809      4313.521     
     60720   634.60442     -920.06323      8935.4592      4317.0795    
     60730   599.41971     -919.40991      7317.3389      4323.355     
     60740   579.52077     -919.14804      5321.1083      4331.8254    
     60750   587.85007     -919.62739      3062.8177      4341.8596    
     60760   606.62541     -920.36226      600.88978      4352.7412    
     60770   605.52993     -920.51341     -1869.8078      4363.698     
     60780   591.01672     -920.26011     -4189.5916      4373.9483    
     60790   589.10177     -920.32606     -6195.568       4382.7633    
     60800   606.03892     -920.90586     -7911.9761      4389.5094    
     60810   550.34302     -919.457       -8930.9633      4393.6668    
     60820   517.23329     -918.61074     -9418.9552      4394.9307    
     60830   568.91885     -920.10403     -9183.8313      4393.1884    
     60840   585.83945     -920.62761     -7970.8378      4388.565     
     60850   541.64873     -919.44325     -5902.0685      4381.4984    
     60860   564.67899     -920.09932     -3755.1412      4372.6686    
     60870   631.14375     -921.93625     -1637.196       4362.7908    
     60880   622.07047     -921.66884      744.87027      4352.5673    
     60890   575.57629     -920.35745      3177.4355      4342.7493    
     60900   559.13204     -919.86085      4937.934       4334.067     
     60910   575.78381     -920.2627       6110.7844      4327.0477    
     60920   558.31557     -919.70042      7242.2166      4322.0361    
     60930   552.21175     -919.43994      8152.96        4319.3401    
     60940   604.10495     -920.77543      8267.4776      4319.1878    
     60950   604.28306     -920.67084      7782.7071      4321.5863    
     60960   550.69996     -919.07949      6774.7001      4326.3588    
     60970   583.89184     -919.88315      5058.323       4333.1652    
     60980   645.53761     -921.44363      3096.2009      4341.4696    
     60990   584.28679     -919.58423      1282.1785      4350.6623    
     61000   569.47559     -919.01214     -979.40319      4360.1474    
     61010   614.46819     -920.06398     -3439.072       4369.2158    
     61020   611.10063     -919.75487     -5170.9705      4377.1182    
     61030   566.5804      -918.31087     -6157.8561      4383.3092    
     61040   592.87594     -918.83544     -6937.5642      4387.4721    
     61050   622.93967     -919.45764     -7275.8263      4389.3873    
     61060   631.06626     -919.49289     -7028.6295      4388.9758    
     61070   643.90172     -919.69282     -6493.0486      4386.3379    
     61080   631.21921     -919.21968     -5431.4747      4381.6866    
     61090   615.21899     -918.68433     -4117.5686      4375.3822    
     61100   621.76569     -918.78995     -2671.8411      4367.8692    
     61110   624.5571      -918.80013     -820.31922      4359.6361    
     61120   614.59736     -918.46282      1342.4015      4351.277     
     61130   600.7939      -918.02031      3268.5771      4343.4573    
     61140   616.06195     -918.38426      4826.3264      4336.7682    
     61150   662.84182     -919.63885      5938.6911      4331.6696    
     61160   634.41355     -918.83413      6791.8429      4328.4883    
     61170   635.90367     -918.89633      6990.8633      4327.4446    
     61180   633.10726     -918.86535      6724.428       4328.5815    
     61190   639.58952     -919.121        5837.6935      4331.7863    
     61200   621.66553     -918.71906      4584.7         4336.7734    
     61210   613.62439     -918.6003       3076.4396      4343.1403    
     61220   617.58998     -918.81666      1483.0836      4350.4132    
     61230   630.49456     -919.28359     -278.04856      4358.082     
     61240   631.57857     -919.42954     -1861.3714      4365.5992    
     61250   619.60821     -919.2188      -3291.1394      4372.4643    
     61260   611.83584     -919.12519     -4867.6424      4378.2164    
     61270   608.53683     -919.15719     -5980.8219      4382.3808    
     61280   581.52753     -918.52545     -6411.1704      4384.6195    
     61290   590.84569     -918.89198     -6511.5351      4384.8024    
     61300   629.93728     -920.08878     -6253.9775      4382.9216    
     61310   614.50008     -919.77737     -5228.6539      4379.0963    
     61320   592.95885     -919.28672     -3774.4991      4373.6684    
     61330   618.0712      -920.0764      -2327.4717      4367.1104    
     61340   622.61899     -920.28416     -856.12729      4359.9015    
     61350   582.42231     -919.22996      619.62724      4352.515     
     61360   575.89472     -919.08406      2020.2575      4345.4151    
     61370   564.98287     -918.78767      3574.0111      4339.0425    
     61380   581.11676     -919.21983      5009.8101      4333.8631    
     61390   650.83778     -921.14216      5864.8002      4330.2935    
     61400   616.10502     -920.18401      6460.1025      4328.5884    
     61410   568.79053     -918.8872       6459.6944      4328.9018    
     61420   625.83344     -920.49127      5540.3184      4331.2025    
     61430   625.42478     -920.51101      4564.4029      4335.217     
     61440   550.89203     -918.47342      3537.3469      4340.6314    
     61450   589.98103     -919.57634      1761.2102      4347.0922    
     61460   631.66038     -920.73787      116.02277      4354.0676    
     61470   588.90686     -919.55573     -1113.5438      4361.0443    
     61480   579.22636     -919.2854      -2540.3152      4367.6149    
     61490   606.84332     -920.03991     -4083.9757      4373.3299    
     61500   588.3661      -919.51004     -5285.5076      4377.7162    
     61510   569.82681     -918.97756     -6011.8186      4380.402     
     61520   560.02046     -918.67695     -6157.6359      4381.169     
     61530   595.96992     -919.63701     -5736.3456      4379.9858    
     61540   632.77873     -920.61892     -4737.0744      4377.0073    
     61550   613.08369     -920.04193     -3316.3693      4372.5669    
     61560   623.30422     -920.30367     -1955.4651      4367.1201    
     61570   663.1235      -921.40119     -919.31627      4361.1015    
     61580   597.76038     -919.59697      316.12913      4354.8646    
     61590   528.2278      -917.67058      1323.8091      4348.7854    
     61600   573.09795     -918.89544      1953.1985      4343.1743    
     61610   586.93718     -919.23241      3120.1568      4338.249     
     61620   558.1298      -918.36708      4772.2549      4334.3645    
     61630   617.5359      -919.9357       5698.5848      4331.9868    
     61640   660.04758     -921.03143      6023.7678      4331.3977    
     61650   640.05089     -920.41952      5865.4077      4332.688     
     61660   619.66071     -919.82468      4991.5398      4335.7882    
     61670   611.03151     -919.56761      3550.4107      4340.4194    
     61680   606.38154     -919.42284      1985.068       4346.1393    
     61690   584.64949     -918.7973       513.06293      4352.4596    
     61700   569.93119     -918.35007     -866.47422      4358.9139    
     61710   606.05718     -919.29296     -2195.5445      4365.0632    
     61720   621.09265     -919.63616     -3276.4674      4370.4929    
     61730   594.38444     -918.81822     -3978.3788      4374.8664    
     61740   617.2875      -919.37594     -4744.2178      4377.9481    
     61750   651.69887     -920.25453     -5267.7609      4379.5113    
     61760   616.81014     -919.2266      -5255.1577      4379.405     
     61770   606.18702     -918.88881     -4940.9443      4377.6369    
     61780   619.85545     -919.22909     -4279.1721      4374.3238    
     61790   602.01386     -918.69685     -3236.0946      4369.69      
     61800   593.97828     -918.43352     -1996.0972      4364.0729    
     61810   615.52567     -918.98175     -523.78337      4357.8804    
     61820   611.14125     -918.80008      1102.3548      4351.5801    
     61830   635.28932     -919.4097       2586.9073      4345.6779    
     61840   659.37378     -920.02776      3794.1886      4340.6307    
     61850   631.08613     -919.21681      4768.1859      4336.8104    
     61860   626.6501      -919.09479      5133.8776      4334.4979    
     61870   620.38653     -918.94331      5057.2753      4333.7991    
     61880   591.15718     -918.16954      4807.6512      4334.6874    
     61890   588.17291     -918.12944      4252.6123      4337.0731    
     61900   607.65804     -918.7147       3337.8036      4340.7742    
     61910   623.18404     -919.19788      2463.0571      4345.514     
     61920   641.3293      -919.77253      1552.5673      4351.0126    
     61930   654.20193     -920.23174      307.7482       4356.9747    
     61940   642.65908     -920.04768     -1369.841       4363.0043    
     61950   614.25631     -919.42198     -3082.8034      4368.5805    
     61960   582.47942     -918.70915     -4312.8049      4373.1739    
     61970   573.27807     -918.62168     -5236.733       4376.384     
     61980   569.58038     -918.68181     -5649.905       4377.9289    
     61990   575.4929      -919.00391     -5518.5197      4377.6841    
     62000   603.39323     -919.94026     -4897.2041      4375.6981    
     62010   611.32362     -920.33286     -3698.7373      4372.1847    
     62020   602.4094      -920.26108     -2354.0108      4367.5257    
     62030   617.57778     -920.86419     -1378.7153      4362.1417    
     62040   594.20496     -920.39793     -374.49086      4356.3616    
     62050   561.94382     -919.66496      805.80042      4350.5099    
     62060   565.08847     -919.88945      1955.2126      4344.9532    
     62070   562.94914     -919.94264      3112.7565      4340.0497    
     62080   558.0917      -919.8951       4271.9837      4336.1562    
     62090   592.54844     -920.92471      4899.6767      4333.6127    
     62100   591.23955     -920.96084      5048.8979      4332.6061    
     62110   549.46509     -919.86148      5091.7776      4333.1874    
     62120   603.83132     -921.42507      4410.0857      4335.3427    
     62130   605.12091     -921.51564      3377.597       4338.8681    
     62140   529.39446     -919.45685      2273.0027      4343.4463    
     62150   554.63446     -920.17478      876.17044      4348.7223    
     62160   608.2922      -921.65827     -460.14331      4354.264     
     62170   535.21873     -919.60434     -1239.2404      4359.6687    
     62180   524.56484     -919.25917     -2315.1162      4364.6591    
     62190   598.95233     -921.23167     -3510.9256      4368.9008    
     62200   611.93673     -921.47124     -4182.4343      4372.0331    
     62210   558.78632     -919.86642     -4279.2962      4373.8454    
     62220   575.43331     -920.17867     -4401.4178      4374.2909    
     62230   600.35932     -920.67493     -4382.6864      4373.3423    
     62240   581.02104     -919.90939     -3894.9931      4371.0196    
     62250   570.75903     -919.36329     -2985.7443      4367.4844    
     62260   610.52458     -920.15816     -1899.0403      4363.025     
     62270   611.43287     -919.83605     -564.9403       4357.9975    
     62280   583.90117     -918.73419      756.54734      4352.8203    
     62290   589.71137     -918.57416      1899.5765      4347.9064    
     62300   619.5613      -919.09992      2945.1104      4343.6154    
     62310   633.61178     -919.22927      3847.7561      4340.2692    
     62320   638.36818     -919.16269      4462.2843      4338.143     
     62330   640.11191     -919.07169      4673.8885      4337.4201    
     62340   657.97746     -919.48229      4266.6167      4338.1528    
     62350   647.98569     -919.16573      3712.7898      4340.2269    
     62360   618.02512     -918.32915      2918.3029      4343.4627    
     62370   601.715       -917.88276      1818.6366      4347.6077    
     62380   619.08319     -918.37441      698.20542      4352.3228    
     62390   618.55357     -918.37349     -250.43411      4357.2637    
     62400   608.88652     -918.122       -1265.6182      4362.1216    
     62410   654.14601     -919.40639     -2343.302       4366.5718    
     62420   657.48711     -919.55143     -3137.177       4370.2835    
     62430   615.93519     -918.47473     -3813.76        4373.0007    
     62440   607.34664     -918.32131     -4432.9431      4374.5036    
     62450   635.27077     -919.19564     -4486.852       4374.6107    
     62460   611.49723     -918.64877     -3727.8574      4373.3157    
     62470   617.50689     -918.93689     -2943.1375      4370.8408    
     62480   647.62954     -919.91417     -2240.7966      4367.4401    
     62490   629.26042     -919.5628      -1320.2233      4363.3517    
     62500   622.47964     -919.54877     -568.05363      4358.857     
     62510   598.30624     -919.05092      152.37544      4354.2027    
     62520   588.19254     -918.93657      873.2571       4349.6162    
     62530   560.7204      -918.31653      1735.3652      4345.3287    
     62540   576.18145     -918.86694      2695.5182      4341.6065    
     62550   596.84502     -919.54647      3897.2362      4338.7556    
     62560   631.33729     -920.61464      4682.9026      4337.1293    
     62570   641.50606     -921.02778      4767.3855      4336.9622    
     62580   630.53361     -920.87607      4275.8251      4338.2823    
     62590   603.42837     -920.28686      3360.4338      4340.9393    
     62600   557.14956     -919.14764      2122.2919      4344.6485    
     62610   560.01342     -919.3428       637.6628       4349.0228    
     62620   574.02378     -919.82235     -484.39249      4353.6121    
     62630   553.6335      -919.32114     -1039.0484      4358.0696    
     62640   568.22586     -919.76691     -1615.7868      4362.1994    
     62650   619.03214     -921.20643     -2402.1281      4365.8131    
     62660   598.68557     -920.67156     -2992.7095      4368.6736    
     62670   567.7612      -919.83804     -3353.9049      4370.5927    
     62680   604.69328     -920.88459     -3809.1         4371.442     
     62690   574.70876     -920.06701     -3806.4475      4371.0972    
     62700   557.70284     -919.60092     -3512.5971      4369.5517    
     62710   596.46499     -920.66971     -2847.907       4366.9062    
     62720   584.42185     -920.31793     -1926.4078      4363.3722    
     62730   551.66422     -919.37829     -1040.9593      4359.236     
     62740   594.43332     -920.51707     -159.02093      4354.7818    
     62750   591.81258     -920.37519      986.59677      4350.2978    
     62760   558.91407     -919.37865      2118.5473      4346.139     
     62770   582.75438     -919.93175      2808.0064      4342.647     
     62780   615.58664     -920.70054      3315.8611      4340.0433    
     62790   620.92372     -920.68261      3781.3283      4338.4911    
     62800   586.06145     -919.52765      3906.8124      4338.1224    
     62810   568.32625     -918.81308      3768.1938      4338.9806    
     62820   615.68063     -919.83262      3256.9217      4341.0174    
     62830   621.95782     -919.63452      2731.8536      4344.0866    
     62840   596.59441     -918.5275       2139.358       4348.0249    
     62850   634.20411     -919.1544       1066.9832      4352.6341    
     62860   686.05287     -920.17656     -122.50346      4357.5875    
     62870   621.65395     -918.04986     -982.47176      4362.5259    
     62880   632.66528     -918.10829     -2228.3981      4367.1503    
     62890   657.04982     -918.58593     -3560.3715      4371.0737    
     62900   599.56852     -916.84982     -4224.4122      4373.8923    
     62910   596.23459     -916.65605     -4222.1227      4375.3877    
     62920   660.79391     -918.36834     -3876.6201      4375.55      
     62930   666.66833     -918.48655     -3471.5634      4374.4807    
     62940   681.24466     -918.89683     -2969.5855      4372.3124    
     62950   678.7445      -918.8812      -2137.5149      4369.2133    
     62960   649.11632     -918.14609     -1352.4272      4365.4389    
     62970   667.25445     -918.76871     -939.00928      4361.2303    
     62980   625.2369      -917.74155     -271.09076      4356.7396    
     62990   583.56117     -916.71634      751.7001       4352.1806    
     63000   629.08428     -918.10426      1822.2804      4347.8676    
     63010   670.98538     -919.41278      2905.7675      4344.1367    
     63020   638.27603     -918.67275      4007.7909      4341.3313    
     63030   655.09289     -919.3297       4177.9167      4339.7649    
     63040   662.49865     -919.75822      3878.7417      4339.5064    
     63050   592.90348     -918.05173      3735.1588      4340.4784    
     63060   582.09682     -917.94975      3227.2248      4342.6234    
     63070   620.31181     -919.19837      2182.6935      4345.7782    
     63080   615.74071     -919.24937      1432.8923      4349.6451    
     63090   623.38576     -919.63702      729.579        4353.9798    
     63100   613.65468     -919.53088     -105.76216      4358.56      
     63110   639.79617     -920.42101     -1405.6932      4363.1093    
     63120   609.37133     -919.73605     -2468.1615      4367.2388    
     63130   573.97909     -918.89189     -3333.8795      4370.602     
     63140   589.63302     -919.44184     -4037.6601      4372.9193    
     63150   601.32782     -919.8732      -4357.9262      4373.9673    
     63160   566.51984     -918.99736     -4225.0886      4373.6441    
     63170   595.08835     -919.86891     -3979.3068      4371.9786    
     63180   616.24593     -920.53218     -3226.1234      4369.0612    
     63190   588.20187     -919.82584     -2152.8501      4365.1255    
     63200   601.38049     -920.25847     -1139.2694      4360.5048    
     63210   592.16187     -920.06351     -201.0832       4355.5208    
     63220   542.8578      -918.73537      838.07313      4350.477     
     63230   580.84161     -919.8087       1869.062       4345.6966    
     63240   617.61876     -920.83547      3094.5817      4341.5118    
     63250   591.24958     -920.10963      4222.5458      4338.2998    
     63260   597.1775      -920.28189      4651.3403      4336.3965    
     63270   628.42947     -921.16624      4508.8026      4335.9402    
     63280   571.87199     -919.61821      4158.3753      4336.9019    
     63290   557.71918     -919.24245      3348.4384      4339.1665    
     63300   575.20133     -919.72598      2356.5729      4342.4949    
     63310   558.95997     -919.25331      1395.213       4346.5833    
     63320   555.90679     -919.12249      779.28428      4351.1457    
     63330   612.85578     -920.63217      33.911908      4355.9732    
     63340   633.56961     -921.11931     -804.3574       4360.8357    
     63350   624.66789     -920.78951     -1772.2692      4365.465     
     63360   603.67425     -920.12536     -2886.5856      4369.5518    
     63370   587.00061     -919.57366     -4057.9562      4372.7371    
     63380   584.54189     -919.39766     -4784.2102      4374.6563    
     63390   577.56961     -919.06999     -4915.6658      4375.0739    
     63400   569.35141     -918.67371     -4617.5819      4373.9359    
     63410   594.35632     -919.15378     -3811.6749      4371.3366    
     63420   627.76841     -919.81315     -2462.5119      4367.5325    
     63430   608.54125     -918.98099     -1011.488       4362.9405    
     63440   637.41777     -919.47292      34.930202      4358.007     
     63450   654.1886      -919.62043      1113.0834      4353.0795    
     63460   617.81072     -918.32554      2147.5916      4348.496     
     63470   615.74293     -918.0174       2965.9896      4344.5769    
     63480   672.27473     -919.35845      3636.0272      4341.5838    
     63490   648.86084     -918.52076      4148.6002      4339.7276    
     63500   610.89166     -917.33341      4439.5672      4339.173     
     63510   661.15475     -918.62732      4108.7814      4340.0012    
     63520   667.01989     -918.72213      3743.7359      4342.1363    
     63530   644.35989     -918.07181      3066.9362      4345.4609    
     63540   617.95481     -917.34223      2076.2671      4349.7737    
     63550   662.51542     -918.60177      638.67887      4354.7623    
     63560   675.26865     -919.00716     -686.30811      4359.9965    
     63570   629.13581     -917.80862     -1909.8312      4365.0532    
     63580   592.80357     -916.88622     -2830.9854      4369.5492    
     63590   646.13049     -918.4589      -3766.2574      4373.1708    
     63600   665.38557     -919.11535     -4239.5936      4375.63      
     63610   626.27293     -918.17633     -4218.0537      4376.7664    
     63620   652.29918     -919.0691      -4111.1529      4376.564     
     63630   676.30993     -919.94196     -3792.9853      4375.0557    
     63640   643.65624     -919.27232     -3246.0859      4372.3369    
     63650   600.60513     -918.30604     -2548.97        4368.5759    
     63660   614.18947     -918.89574     -1980.4257      4363.9813    
     63670   588.48627     -918.37249     -1108.4757      4358.744     
     63680   541.39801     -917.20433      331.27183      4353.1481    
     63690   594.94278     -918.78751      1685.3395      4347.6282    
     63700   664.50657     -920.80742      3115.3197      4342.6197    
     63710   643.80533     -920.33193      4525.0026      4338.5697    
     63720   632.16461     -920.11279      5363.201       4335.912     
     63730   660.60907     -921.02181      5205.9252      4334.9036    
     63740   598.17201     -919.412        4483.9124      4335.5195    
     63750   546.86584     -918.08389      3552.0222      4337.5541    
     63760   575.57102     -918.94846      2652.8949      4340.7322    
     63770   573.1281      -918.92424      2021.1468      4344.7902    
     63780   576.83203     -919.05118      1169.8957      4349.524     
     63790   629.61225     -920.53306      143.30416      4354.6774    
     63800   623.42965     -920.38184     -899.21085      4359.932     
     63810   603.95102     -919.86815     -2039.0954      4364.9565    
     63820   611.04071     -920.09414     -3224.5899      4369.3822    
     63830   588.94059     -919.50851     -3943.2125      4372.8419    
     63840   582.0875      -919.34074     -4576.2922      4375.0786    
     63850   610.18339     -920.14374     -4874.5979      4375.882     
     63860   580.20765     -919.33466     -4506.9043      4375.1544    
     63870   568.52979     -919.02863     -4018.8707      4372.9793    
     63880   601.92013     -919.96488     -3230.9156      4369.5107    
     63890   610.53803     -920.21007     -2263.744       4364.9835    
     63900   601.92126     -919.97964     -1129.4054      4359.7013    
     63910   587.21452     -919.5774      -9.4291792      4354.0121    
     63920   572.9136      -919.17422      1387.7538      4348.279     
     63930   592.51843     -919.69657      2692.5794      4342.9297    
     63940   627.58968     -920.64228      3600.5949      4338.372     
     63950   597.75567     -919.79243      4406.6011      4334.9066    
     63960   562.45359     -918.78974      5092.6771      4332.7943    
     63970   617.7743      -920.29796      5196.7446      4332.2499    
     63980   610.8213      -920.07641      4971.3157      4333.3354    
     63990   563.20031     -918.72864      4325.6424      4335.9986    
     64000   604.90432     -919.84918      3160.6683      4340.0584    
     64010   632.64414     -920.56681      2027.3508      4345.1863    
     64020   589.34532     -919.30939      1107.1519      4351.0506    
     64030   600.59533     -919.55629     -373.25974      4357.3493    
     64040   628.71181     -920.24949     -2246.7211      4363.623     
     64050   588.53323     -919.03466     -3462.8355      4369.3054    
     64060   561.58812     -918.17345     -4267.7391      4373.9845    
     64070   629.8343      -919.92673     -4999.9295      4377.3743    
     64080   617.53281     -919.42352     -5351.5115      4379.2245    
     64090   571.83289     -917.99802     -5273.5042      4379.3955    
     64100   628.69839     -919.40699     -4952.0021      4377.879     
     64110   673.86955     -920.47614     -4181.9446      4374.7588    
     64120   612.13766     -918.59965     -2858.6511      4370.2651    
     64130   619.21202     -918.65334     -1833.1071      4364.7747    
     64140   642.93651     -919.16537     -909.19559      4358.6093    
     64150   609.43835     -918.09751      545.01651      4352.0739    
     64160   617.19027     -918.18015      2239.2513      4345.6152    
     64170   647.20834     -918.87942      3874.5856      4339.7621    
     64180   629.62693     -918.26957      5133.1509      4335.0296    
     64190   644.35899     -918.58233      5798.4437      4331.8248    
     64200   636.41355     -918.28819      6222.8191      4330.3935    
     64210   634.82781     -918.19819      6236.6408      4330.8967    
     64220   692.98209     -919.80232      5437.2182      4333.3684    
     64230   651.23309     -918.68002      4209.8122      4337.6098    
     64240   564.31719     -916.32497      2904.5741      4343.2873    
     64250   633.88651     -918.31375      1386.7571      4350.0214    
     64260   703.89027     -920.34328     -196.29548      4357.3564    
     64270   612.77748     -917.93782     -1377.635       4364.8221    
     64280   610.09196     -918.00238     -3114.5461      4372.0102    
     64290   682.45292     -920.18692     -5169.0006      4378.3606    
     64300   631.51472     -919.00194     -6482.6389      4383.2179    
     64310   561.2077      -917.28099     -7094.568       4386.1123    
     64320   611.92311     -918.93213     -7501.2132      4386.777     
     64330   611.26331     -919.18097     -7052.8448      4385.0531    
     64340   570.58978     -918.30858     -5790.2694      4381.0279    
     64350   621.36325     -919.96232     -4245.6606      4375.0471    
     64360   653.24746     -921.10553     -2483.9793      4367.5713    
     64370   586.91285     -919.49728     -552.66122      4359.1402    
     64380   587.25093     -919.69612      1101.7124      4350.3409    
     64390   595.14587     -920.06835      2748.7509      4341.7039    
     64400   575.02364     -919.62427      4511.527       4333.7576    
     64410   582.46033     -919.91029      6139.0897      4327.0642    
     64420   603.80544     -920.56805      7428.756       4322.1532    
     64430   565.77953     -919.56378      8340.5473      4319.4677    
     64440   588.01192     -920.22702      8206.819       4319.3209    
     64450   613.7795      -920.99316      7452.5272      4321.7494    
     64460   559.16728     -919.52758      6420.1261      4326.5954    
     64470   555.4677      -919.46054      4750.0144      4333.5912    
     64480   603.05546     -920.79688      2590.4348      4342.2792    
     64490   578.16624     -920.10039      459.99094      4352.0397    
     64500   575.38007     -919.9993      -1824.6507      4362.2142    
     64510   595.62673     -920.51329     -4129.2475      4372.0819    
     64520   579.14661     -919.99197     -6070.9618      4380.8942    
     64530   576.28445     -919.83853     -7643.1792      4387.9843    
     64540   610.33771     -920.70894     -8809.0867      4392.7842    
     64550   584.23638     -919.91855     -9098.0732      4394.865     
     64560   564.83141     -919.32701     -8791.984       4394.0498    
     64570   583.45178     -919.79189     -8096.4996      4390.3639    
     64580   586.9934      -919.83444     -6873.5006      4383.9787    
     64590   580.11646     -919.58223     -5022.6587      4375.243     
     64600   574.12394     -919.33581     -2477.246       4364.7207    
     64610   565.04876     -918.9706       365.06494      4353.1925    
     64620   598.85792     -919.75575      3290.7118      4341.5532    
     64630   654.80032     -921.12355      5920.8131      4330.7235    
     64640   657.40409     -921.01726      8221.4391      4321.5469    
     64650   596.76736     -919.18475      10024.633      4314.7687    
     64660   621.00327     -919.73543      10562.956      4310.9708    
     64670   626.34854     -919.78116      10025.938      4310.3808    
     64680   549.43566     -917.56689      9265.0711      4312.9245    
     64690   557.46445     -917.71144      7870.0752      4318.4221    
     64700   598.96203     -918.75078      6224.1228      4326.5238    
     64710   615.07009     -919.05708      4485.5537      4336.7847    
     64720   650.50796     -919.87632      2219.3169      4348.7004    
     64730   689.38366     -920.77088     -722.54604      4361.5836    
     64740   647.81766     -919.42987     -3773.8179      4374.5286    
     64750   612.91434     -918.27434     -6749.8429      4386.5417    
     64760   636.28306     -918.71791     -9350.4228      4396.6277    
     64770   612.27358     -917.8337      -11070.841      4403.8982    
     64780   582.59478     -916.79573     -11806.179      4407.7221    
     64790   630.64108     -917.90006     -11687.448      4407.7801    
     64800   655.84408     -918.3445      -10325.385      4404.0619    
     64810   673.36189     -918.57376     -8463.5427      4396.9347    
     64820   703.49921     -919.15803     -6520.8906      4386.9605    
     64830   635.28426     -917.03446     -4046.6993      4374.7626    
     64840   612.97548     -916.20037     -1002.7723      4361.1303    
     64850   691.82837     -918.1411       2227.6492      4347.027     
     64860   675.88749     -917.43976      5650.6909      4333.4875    
     64870   649.34404     -916.47623      8603.8053      4321.5779    
     64880   743.39424     -918.89623      10587.925      4312.2175    
     64890   714.51121     -917.98222      12192.726      4306.0588    
     64900   619.6946      -915.32654      13234.913      4303.6236    
     64910   712.48683     -917.95711      12310.094      4305.2211    
     64920   698.27817     -917.70645      10901.873      4310.6736    
     64930   596.46631     -915.0831       9054.1044      4319.6034    
     64940   660.64138     -917.09612      6131.9509      4331.4744    
     64950   731.09163     -919.35087      2852.8925      4345.4452    
     64960   643.54382     -917.26115     -245.39398      4360.5277    
     64970   642.62114     -917.56996     -3940.4966      4375.7132    
     64980   662.15351     -918.44628     -7282.1246      4389.8333    
     64990   655.73067     -918.58892     -9794.9183      4401.783     
     65000   649.78368     -918.71988     -11933.44       4410.6818    
     65010   625.03257     -918.29201     -13179.13       4415.7995    
     65020   595.40408     -917.68667     -13378.77       4416.6877    
     65030   623.20596     -918.65517     -12854.46       4413.2381    
     65040   656.91266     -919.79974     -11342.181      4405.6135    
     65050   617.31974     -918.90903     -8633.9606      4394.3134    
     65060   607.94685     -918.83238     -5575.3337      4380.2015    
     65070   614.48638     -919.16307     -2189.1103      4364.2875    
     65080   605.77196     -919.02859      1514.3864      4347.6748    
     65090   596.03191     -918.82039      5295.2058      4331.5484    
     65100   600.33339     -918.96711      8634.0897      4317.0831    
     65110   598.55213     -918.92911      11504.623      4305.3107    
     65120   602.0941      -919.04558      13667.666      4297.0917    
     65130   616.29832     -919.48857      14875.03       4293.067     
     65140   637.40882     -920.17697      14978.835      4293.5965    
     65150   625.5322      -920.00895      13568.199      4298.706     
     65160   600.34259     -919.50598      11109.657      4308.0043    
     65170   600.56423     -919.71372      7852.2721      4320.7701    
     65180   605.50789     -920.03599      4161.8684      4336.0308    
     65190   590.74279     -919.7781       437.55403      4352.6604    
     65200   573.29703     -919.39697     -3434.6902      4369.4729    
     65210   573.17057     -919.44794     -7051.3113      4385.2296    
     65220   576.75232     -919.56702     -9890.0052      4398.76      
     65230   596.04259     -920.11602     -12114.599      4409.1101    
     65240   591.52201     -920.02084     -13530.068      4415.5436    
     65250   566.89742     -919.39234     -13976.023      4417.5978    
     65260   585.01183     -919.97917     -13633.361      4415.1272    
     65270   587.66572     -920.16345     -12117.031      4408.2841    
     65280   559.2241      -919.49107     -9739.8774      4397.5891    
     65290   572.06029     -919.94783     -6776.1564      4383.8536    
     65300   585.45916     -920.386       -3292.0431      4368.0808    
     65310   560.00197     -919.69631      633.18511      4351.4233    
     65320   587.25957     -920.41436      4575.6818      4335.1364    
     65330   639.62042     -921.79478      7964.1284      4320.4374    
     65340   580.80384     -920.07886      10954.809      4308.3631    
     65350   565.19989     -919.56835      12855.61       4299.7656    
     65360   591.21514     -920.2226       13766.949      4295.1832    
     65370   569.52613     -919.57175      13569.614      4294.8398    
     65380   555.11055     -919.13952      12515.905      4298.644     
     65390   567.26201     -919.44094      10949.683      4306.2641    
     65400   585.65451     -919.894        8668.4463      4317.2059    
     65410   625.85391     -920.92112      5600.7848      4330.76      
     65420   618.43274     -920.58974      2319.2197      4345.9882    
     65430   595.90276     -919.80911     -987.10548      4361.86      
     65440   625.59025     -920.43478     -4672.4351      4377.3051    
     65450   603.50072     -919.58464     -8161.5735      4391.1536    
     65460   550.78339     -917.87363     -10968.525      4402.2895    
     65470   583.94189     -918.53668     -12895.128      4409.8141    
     65480   591.77511     -918.49134     -13256.727      4413.1461    
     65490   572.41198     -917.71969     -12298.054      4412.2001    
     65500   663.66457     -920.03696     -11067.107      4407.3054    
     65510   709.581       -921.12233     -9223.0101      4398.934     
     65520   607.74758     -918.17583     -6481.0908      4387.7554    
     65530   609.37371     -918.13578     -3916.7439      4374.6703    
     65540   659.03619     -919.41963     -1152.0452      4360.5575    
     65550   604.94264     -917.82211      2193.596       4346.3313    
     65560   589.66201     -917.29421      5335.2979      4333.0249    
     65570   671.47308     -919.45462      7870.1562      4321.5876    
     65580   648.13365     -918.71915      10158.133      4312.7733    
     65590   613.6152      -917.71523      11694.368      4307.2146    
     65600   653.52202     -918.822        11855.695      4305.301     
     65610   629.16883     -918.19081      11319.48       4307.0485    
     65620   618.08961     -917.96739      10139.189      4312.2448    
     65630   645.9357      -918.85407      8322.4375      4320.4951    
     65640   628.30226     -918.49745      6027.8659      4331.2218    
     65650   633.49877     -918.77821      3206.6719      4343.6983    
     65660   678.82546     -920.18326     -111.66062      4357.0277    
     65670   623.95394     -918.81037     -3008.181       4370.185     
     65680   593.14614     -918.08489     -5773.7414      4382.2358    
     65690   654.307       -919.91268     -8420.8759      4392.3005    
     65700   622.77057     -919.18966     -10136.444      4399.5677    
     65710   539.53215     -917.01795     -10725.559      4403.5203    
     65720   608.04024     -919.05669     -10950.305      4403.9816    
     65730   657.42411     -920.59504     -10300.626      4400.9497    
     65740   580.47648     -918.63711     -8656.8425      4394.6981    
     65750   572.96959     -918.58191     -6976.5449      4385.7871    
     65760   624.28595     -920.14226     -4997.7475      4374.821     
     65770   581.97364     -919.07179     -2000.0708      4362.5019    
     65780   580.27975     -919.0831       1109.1007      4349.7832    
     65790   636.44157     -920.66856      3908.9984      4337.6425    
     65800   613.14347     -920.03257      6615.577       4326.9478    
     65810   598.82417     -919.63563      8618.3669      4318.4838    
     65820   649.8623      -921.06637      9651.9172      4312.8084    
     65830   591.67537     -919.484        10274.383      4310.1993    
     65840   544.74916     -918.21792      10005.774      4310.7742    
     65850   596.62462     -919.69502      8764.3899      4314.3981    
     65860   571.87646     -919.03964      7540.5858      4320.6867    
     65870   569.94314     -919.01043      5762.8505      4329.2152    
     65880   632.74228     -920.76586      3273.6802      4339.4098    
     65890   605.78855     -920.02008      937.55517      4350.5091    
     65900   583.4743      -919.3931      -1300.7617      4361.7713    
     65910   633.44236     -920.75803     -3916.0182      4372.4695    
     65920   624.74708     -920.49324     -6060.1251      4381.8035    
     65930   567.38199     -918.88243     -7507.3259      4389.1072    
     65940   574.229       -919.05213     -8788.0496      4393.9193    
     65950   599.8617      -919.74314     -9471.5987      4395.8747    
     65960   597.77073     -919.67848     -9344.0947      4394.7962    
     65970   575.10615     -919.05424     -8402.3887      4390.7748    
     65980   578.67309     -919.15808     -6948.7736      4384.1525    
     65990   589.68237     -919.45431     -4792.3135      4375.4527    
     66000   607.83559     -919.9318      -2423.9331      4365.3867    
     66010   616.58093     -920.13181      86.846722      4354.7359    
     66020   617.14148     -920.09364      2346.3119      4344.2884    
     66030   608.09657     -919.78276      4432.1607      4334.7521    
     66040   585.36942     -919.0859       6297.4195      4326.754     
     66050   577.16486     -918.78299      7766.8375      4320.8325    
     66060   609.76308     -919.60686      8677.2261      4317.3967    
     66070   623.4172      -919.90907      8876.7572      4316.6789    
     66080   609.19858     -919.45406      8442.7072      4318.7017    
     66090   610.6051      -919.44365      7379.1465      4323.3016    
     66100   633.22328     -920.02427      5585.0123      4330.1222    
     66110   606.34526     -919.22874      3414.9006      4338.5971    
     66120   574.77868     -918.29029      1426.6565      4348.0575    
     66130   609.29043     -919.15709     -757.05133      4357.8584    
     66140   625.95666     -919.49666     -2687.472       4367.3274    
     66150   609.88075     -918.91499     -4365.369       4375.8529    
     66160   619.81325     -919.04696     -5981.6905      4382.8997    
     66170   625.14562     -919.04579     -7240.2213      4387.9723    
     66180   608.40268     -918.43748     -7874.6532      4390.6956    
     66190   635.43184     -919.05417     -8062.6588      4390.8831    
     66200   630.32824     -918.78908     -7504.6297      4388.519     
     66210   619.86093     -918.39325     -6376.3989      4383.8094    
     66220   635.23717     -918.7216      -4641.8732      4377.1529    
     66230   635.9473      -918.64374     -2594.5929      4369.1266    
     66240   662.48409     -919.28988     -783.74959      4360.3877    
     66250   657.56548     -919.07884      1023.3131      4351.5279    
     66260   601.88904     -917.47367      3059.0959      4343.1242    
     66270   616.20587     -917.8143       4667.9703      4335.7832    
     66280   660.85304     -919.00333      5870.939       4329.9895    
     66290   625.97001     -918.01005      6880.3619      4326.0963    
     66300   607.44921     -917.49751      7443.3563      4324.3808    
     66310   653.75886     -918.80998      7322.7886      4324.983     
     66320   667.12166     -919.25084      6636.7679      4327.8453    
     66330   640.07212     -918.61785      5534.2555      4332.7414    
     66340   646.17734     -918.94738      3952.7625      4339.313     
     66350   633.29124     -918.7844       1960.0822      4347.0598    
     66360   615.40116     -918.50176     -101.53015      4355.3644    
     66370   621.07483     -918.89015     -2236.3199      4363.5699    
     66380   597.19606     -918.46422     -3915.1731      4371.0199    
     66390   590.16333     -918.49908     -5327.529       4377.1741    
     66400   609.10939     -919.25741     -6268.5292      4381.5964    
     66410   603.81055     -919.34538     -6498.7688      4384.006     
     66420   604.50854     -919.59321     -6395.6827      4384.3313    
     66430   650.48312     -921.10926     -5995.8169      4382.6263    
     66440   628.81914     -920.75902     -5284.2029      4379.0389    
     66450   578.56469     -919.58845     -4222.1237      4373.8213    
     66460   576.28504     -919.7124      -3124.9366      4367.321     
     66470   561.9627      -919.46096     -1826.6803      4359.9104    
     66480   538.72728     -918.91516     -328.44996      4352.0118    
     66490   547.74718     -919.21803      1602.8297      4344.1098    
     66500   576.79589     -920.03931      3857.7125      4336.8083    
     66510   612.78795     -921.03504      5605.2141      4330.7798    
     66520   628.04251     -921.46351      6635.4189      4326.5438    
     66530   585.31414     -920.29307      7142.734       4324.4054    
     66540   582.56222     -920.2392       6755.4623      4324.4857    
     66550   578.59506     -920.14771      6064.9623      4326.6662    
     66560   558.83722     -919.61049      5258.8622      4330.7228    
     66570   555.90211     -919.52177      4062.7743      4336.3869    
     66580   608.46161     -920.95606      2492.9791      4343.2804    
     66590   614.23188     -921.07969      875.70661      4350.9206    
     66600   604.93862     -920.78709     -912.24024      4358.7922    
     66610   583.44028     -920.14798     -2795.3417      4366.3333    
     66620   565.87869     -919.6046      -4705.7396      4372.9442    
     66630   548.57423     -919.04803     -6012.9474      4378.0392    
     66640   554.02355     -919.1026      -6876.5229      4381.1984    
     66650   569.13039     -919.40361     -6824.7694      4382.1739    
     66660   594.82859     -919.98332     -6202.2004      4380.982     
     66670   597.98278     -919.92561     -5155.1401      4377.839     
     66680   599.74964     -919.82401     -3888.3642      4373.0894    
     66690   621.85177     -920.27624     -2650.9719      4367.1464    
     66700   625.29078     -920.20537     -1243.6691      4360.4228    
     66710   601.14755     -919.36836      485.6005       4353.3807    
     66720   609.23522     -919.42117      1982.3901      4346.5482    
     66730   633.64657     -919.91635      3246.2065      4340.394     
     66740   607.38578     -919.00793      4555.2274      4335.3148    
     66750   588.916       -918.3229       5558.8047      4331.6954    
     66760   629.01392     -919.25957      5910.3131      4329.8245    
     66770   627.82541     -919.05047      5832.2694      4329.8052    
     66780   606.2994      -918.29586      5366.8711      4331.6023    
     66790   607.28192     -918.16954      4523.5085      4335.0642    
     66800   651.39088     -919.23763      3339.8644      4339.9199    
     66810   637.42342     -918.69623      2185.3418      4345.8085    
     66820   614.42774     -917.9178       886.85171      4352.36      
     66830   658.41231     -918.99638     -621.68948      4359.1616    
     66840   655.31135     -918.76674     -2075.6512      4365.7457    
     66850   626.19214     -917.82904     -3402.9         4371.6493    
     66860   649.48918     -918.34992     -4541.8246      4376.4552    
     66870   665.42729     -918.66861     -5283.0449      4379.8074    
     66880   627.3273      -917.50011     -5553.1548      4381.4749    
     66890   657.54506     -918.23664     -5819.4166      4381.3622    
     66900   650.66646     -917.94354     -5317.8885      4379.4208    
     66910   613.59718     -916.8176      -4146.7271      4375.82      
     66920   648.21488     -917.67205     -3130.5588      4370.9195    
     66930   692.76437     -918.79199     -1759.8478      4365.0741    
     66940   676.6697      -918.24729      54.22694       4358.7292    
     66950   692.14662     -918.61614      1485.1327      4352.438     
     66960   691.80236     -918.59347      2559.922       4346.6539    
     66970   623.8649      -916.73968      3468.0374      4341.7164    
     66980   611.68486     -916.45927      3934.6253      4337.8887    
     66990   635.21498     -917.19047      4392.1387      4335.3217    
     67000   626.5783      -917.05506      5014.8441      4334.155     
     67010   639.25853     -917.53937      5342.8082      4334.5619    
     67020   708.37201     -919.64787      5002.7308      4336.6265    
     67030   691.66106     -919.45309      4399.7733      4340.2509    
     67040   644.24405     -918.44242      3187.4348      4345.236     
     67050   668.4792      -919.451        1146.9862      4351.1892    
     67060   619.66759     -918.42905     -516.80536      4357.5072    
     67070   585.26712     -917.76466     -1960.1859      4363.6522    
     67080   602.37297     -918.4872      -3222.809       4369.1664    
     67090   641.1407      -919.80153     -4166.9242      4373.652     
     67100   612.88077     -919.24315     -4666.5037      4376.8134    
     67110   611.11582     -919.40268     -5081.8825      4378.4807    
     67120   618.39591     -919.80643     -5170.7211      4378.5343    
     67130   594.48998     -919.33277     -4965.085       4376.9506    
     67140   580.8168      -919.12339     -4511.6509      4373.8031    
     67150   598.24094     -919.7619      -3594.0471      4369.2517    
     67160   590.14078     -919.67838     -2079.3024      4363.6052    
     67170   582.99582     -919.60036     -656.58704      4357.3302    
     67180   595.8447      -920.06451      581.53652      4350.8803    
     67190   565.94819     -919.32154      2129.8604      4344.6649    
     67200   568.45169     -919.45375      3713.2811      4339.158     
     67210   627.68432     -921.15318      4935.6454      4334.8389    
     67220   625.64596     -921.16581      5658.7983      4332.0779    
     67230   583.87671     -920.08534      5778.3515      4331.0882    
     67240   604.1395      -920.73437      5147.2295      4331.8922    
     67250   587.68304     -920.36629      4339.6305      4334.3067    
     67260   548.23026     -919.34884      3239.7119      4338.0703    
     67270   554.42733     -919.57599      1927.1863      4342.8406    
     67280   572.04645     -920.09596      801.79344      4348.2175    
     67290   575.06053     -920.19127     -93.246841      4353.8476    
     67300   580.37315     -920.33511     -1006.7637      4359.4414    
     67310   579.22615     -920.28425     -2205.0016      4364.7011    
     67320   585.92513     -920.43677     -3406.3113      4369.2541    
     67330   593.90963     -920.6162      -4234.9521      4372.7279    
     67340   562.44503     -919.69078     -4713.4277      4374.8585    
     67350   577.4254      -920.0432      -5010.7494      4375.4887    
     67360   597.30133     -920.5154      -4778.2979      4374.5391    
     67370   572.22299     -919.72799     -3936.4597      4372.0934    
     67380   589.68282     -920.10701     -3034.0931      4368.4083    
     67390   611.07425     -920.57246     -1998.8838      4363.7826    
     67400   584.5941      -919.69354     -645.05214      4358.5571    
     67410   586.58517     -919.59005      511.25232      4353.1487    
     67420   617.33512     -920.25853      1382.8183      4347.9199    
     67430   576.76171     -918.93215      2631.1789      4343.1662    
     67440   582.40533     -918.8802       3579.4727      4339.2544    
     67450   639.91486     -920.24329      4138.3371      4336.4737    
     67460   615.91383     -919.34442      4685.0566      4335.0075    
     67470   605.62798     -918.85249      4452.7874      4334.9961    
     67480   634.66552     -919.46159      3835.8137      4336.3764    
     67490   597.06335     -918.23711      3460.3557      4338.9678    
     67500   609.46496     -918.42139      3108.5112      4342.6503    
     67510   668.17238     -919.89871      2114.6082      4347.2914    
     67520   626.06202     -918.60395      1105.7421      4352.6023    
     67530   613.98488     -918.17387     -117.92275      4358.2568    
     67540   659.78557     -919.3629      -1699.2873      4363.865     
     67550   631.17802     -918.50893     -3228.5405      4368.9344    
     67560   570.34346     -916.77583     -4224.8078      4372.9921    
     67570   630.93933     -918.41944     -4912.546       4375.7072    
     67580   648.3335      -918.8747      -4664.9351      4376.8837    
     67590   636.28793     -918.54295     -4083.462       4376.5821    
     67600   674.02292     -919.62617     -3760.9835      4374.9761    
     67610   680.85426     -919.89781     -3350.3187      4372.1837    
     67620   614.36938     -918.16744     -2535.377       4368.3485    
     67630   610.95509     -918.19539     -1719.9423      4363.723     
     67640   633.41642     -918.95347     -951.14032      4358.5693    
     67650   588.82586     -917.85033      115.0834       4353.1437    
     67660   590.0039      -918.0055       1414.7826      4347.7841    
     67670   636.17469     -919.41211      2551.1964      4342.8851    
     67680   610.17785     -918.82333      3869.6922      4338.8163    
     67690   597.78398     -918.60799      4768.6355      4335.9655    
     67700   658.46133     -920.43862      5055.4472      4334.6036    
     67710   636.18361     -919.99176      5078.5136      4334.8293    
     67720   592.80018     -918.95949      4515.2758      4336.6371    
     67730   617.39896     -919.80578      3431.6778      4339.8506    
     67740   614.24344     -919.87574      2513.1915      4344.1549    
     67750   566.61293     -918.67902      1325.6083      4349.2467    
     67760   605.70769     -919.86058     -186.96896      4354.7526    
     67770   601.93447     -919.82779     -1368.8857      4360.2151    
     67780   571.08914     -919.01704     -2225.6858      4365.2573    
     67790   614.735       -920.25599     -3147.7692      4369.5939    
     67800   633.07582     -920.79163     -3915.8631      4372.9363    
     67810   574.14714     -919.18092     -4319.8188      4375.0449    
     67820   579.26824     -919.33931     -4637.8539      4375.779     
     67830   607.63419     -920.13776     -4537.4812      4375.0487    
     67840   566.02168     -918.98919     -3937.5432      4372.8912    
     67850   571.67817     -919.14381     -3323.2857      4369.4858    
     67860   621.2216      -920.50812     -2302.5194      4365.0447    
     67870   619.51172     -920.451       -804.33213      4359.9019    
     67880   604.49838     -920.03226      371.91521      4354.5104    
     67890   593.10303     -919.7137       1428.8857      4349.2514    
     67900   576.37211     -919.23842      2475.4813      4344.4583    
     67910   596.51609     -919.77791      3228.9193      4340.4498    
     67920   599.66284     -919.84243      3811.124       4337.4626    
     67930   553.55068     -918.53216      4493.1917      4335.686     
     67940   602.49455     -919.8544       4703.5418      4335.3102    
     67950   628.03587     -920.52263      4710.5661      4336.4124    
     67960   606.14398     -919.88708      4288.7155      4338.9878    
     67970   620.73233     -920.27541      3256.3116      4342.9025    
     67980   626.68395     -920.43145      1791.1323      4347.8388    
     67990   587.92741     -919.35097      451.99544      4353.3549    
     68000   574.61449     -918.97029     -846.60969      4359.0275    
     68010   581.34929     -919.12787     -2251.8785      4364.439     
     68020   595.59606     -919.47833     -3257.5931      4369.1569    
     68030   622.69289     -920.18248     -3933.8906      4372.8525    
     68040   584.57105     -919.07736     -4262.2313      4375.3116    
     68050   576.49013     -918.80532     -4668.8726      4376.4105    
     68060   612.00503     -919.73338     -4915.5619      4376.0268    
     68070   600.96794     -919.36687     -4470.4915      4374.0982    
     68080   570.21287     -918.44852     -3418.5094      4370.766     
     68090   631.21843     -920.06567     -2346.9763      4366.3512    
     68100   636.31516     -920.12009     -991.00103      4361.2097    
     68110   610.07559     -919.31206      519.39435      4355.77      
     68120   648.62748     -920.30538      1671.1535      4350.4964    
     68130   636.80106     -919.90943      2685.1133      4345.7593    
     68140   573.64148     -918.09779      3625.4965      4341.8787    
     68150   620.64949     -919.34476      3942.6871      4339.1269    
     68160   621.52378     -919.3047       4290.7129      4337.6247    
     68170   595.98459     -918.54054      4382.5244      4337.4689    
     68180   618.50741     -919.11234      3875.9243      4338.6785    
     68190   612.97235     -918.90539      3235.2404      4341.1099    
     68200   586.98217     -918.12983      2629.4884      4344.5715    
     68210   633.10137     -919.35146      1681.7308      4348.8615    
     68220   643.85036     -919.58906      669.88719      4353.6954    
     68230   624.34128     -919.00138     -202.07587      4358.7638    
     68240   635.50308     -919.27727     -1311.0058      4363.776     
     68250   621.07242     -918.8535      -2498.1269      4368.3854    
     68260   594.66026     -918.10363     -3486.9252      4372.2188    
     68270   624.55635     -918.9236      -4255.6977      4374.9549    
     68280   615.29458     -918.66472     -4374.4206      4376.3607    
     68290   625.96514     -918.97582     -4089.5812      4376.3852    
     68300   663.50184     -920.06068     -3669.0916      4375.112     
     68310   637.49071     -919.41693     -3180.1301      4372.6746    
     68320   627.6896      -919.25755     -2712.8468      4369.2244    
     68330   624.29037     -919.30578     -2098.2214      4364.9164    
     68340   568.09477     -917.89703     -1014.6192      4359.9616    
     68350   569.45493     -918.07432      92.06125       4354.6893    
     68360   619.48381     -919.60903      1285.2994      4349.4518    
     68370   591.39561     -918.97991      2860.6178      4344.6381    
     68380   605.44047     -919.52407      3771.7967      4340.7084    
     68390   650.98005     -920.97104      4245.5901      4337.9579    
     68400   608.84622     -920.01062      4683.0221      4336.5448    
     68410   590.09471     -919.7002       4553.3374      4336.5927    
     68420   606.66457     -920.3787       3775.0766      4338.0582    
     68430   549.90169     -919.00286      3288.8781      4340.7309    
     68440   557.2209      -919.37265      2485.1495      4344.442     
     68450   606.88422     -920.90569      1362.0213      4348.9455    
     68460   578.80364     -920.26603      398.14109      4353.906     
     68470   574.10124     -920.25448     -700.47171      4359.0107    
     68480   602.30084     -921.14167     -1913.6297      4363.9128    
     68490   590.97423     -920.92321     -3053.5299      4368.2278    
     68500   564.19168     -920.26032     -4011.3366      4371.5925    
     68510   566.15253     -920.37955     -4729.9658      4373.6964    
     68520   546.6016      -919.88061     -4690.7432      4374.322     
     68530   552.84131     -920.0769      -4283.4108      4373.4645    
     68540   579.52849     -920.82204     -3869.4271      4371.2419    
     68550   574.67038     -920.67971     -3199.0068      4367.7902    
     68560   536.09497     -919.58197     -1996.68        4363.3352    
     68570   574.03367     -920.58429     -961.95916      4358.2364    
     68580   586.44266     -920.84895      201.65557      4352.8328    
     68590   553.13359     -919.82661      1638.2717      4347.4981    
     68600   568.95026     -920.14254      2887.2681      4342.6706    
     68610   615.64271     -921.28572      3928.2933      4338.7433    
     68620   605.84731     -920.84684      4742.7055      4336.0437    
     68630   582.32359     -920.02837      5113.9412      4334.8214    
     68640   618.72288     -920.86286      4852.747       4335.1904    
     68650   608.76464     -920.39764      4345.1744      4337.0864    
     68660   562.33902     -918.9206       3622.1422      4340.3586    
     68670   588.524       -919.43939      2225.5712      4344.7712    
     68680   608.55624     -919.74759      798.73564      4349.9151    
     68690   569.38369     -918.39977     -204.12276      4355.358     
     68700   577.38739     -918.35386     -1245.4456      4360.7653    
     68710   625.43664     -919.39706     -2171.4647      4365.8149    
     68720   611.54986     -918.73122     -2746.9208      4370.2143    
     68730   650.30294     -919.56882     -3394.5112      4373.7603    
     68740   668.34196     -919.87695     -4034.9837      4376.2449    
     68750   623.04758     -918.4939      -4400.3643      4377.4634    
     68760   632.95389     -918.69387     -4689.018       4377.2831    
     68770   644.27092     -918.96983     -4373.7663      4375.6225    
     68780   586.39408     -917.34927     -3382.5011      4372.581     
     68790   613.19985     -918.08826     -2446.4637      4368.4492    
     68800   681.49143     -919.99308     -1323.7497      4363.5329    
     68810   639.34314     -918.85724      162.84608      4358.1943    
     68820   626.58317     -918.55168      1218.5802      4352.8799    
     68830   657.13262     -919.46254      1969.1779      4347.9295    
     68840   601.11489     -917.97835      2867.4152      4343.5924    
     68850   583.79455     -917.55908      3485.9071      4340.1381    
     68860   650.47547     -919.47592      3949.306       4337.7673    
     68870   618.41858     -918.66588      4587.1408      4336.6403    
     68880   597.79512     -918.17846      4728.0831      4336.9442    
     68890   655.08484     -919.87024      4315.1074      4338.7298    
     68900   637.66819     -919.51157      3701.491       4341.8892    
     68910   619.59365     -919.14947      2633.7289      4346.2353    
     68920   648.37793     -920.10544      1089.0931      4351.4392    
     68930   603.95126     -919.03626     -228.40237      4357.0418    
     68940   582.98693     -918.60277     -1419.9533      4362.6271    
     68950   627.87185     -919.99666     -2980.6148      4367.7952    
     68960   588.3383      -919.04264     -3861.0195      4372.0792    
     68970   568.72126     -918.62668     -4456.6838      4375.1706    
     68980   594.58804     -919.46188     -4865.476       4376.8671    
     68990   607.79603     -919.94642     -4805.3977      4377.0334    
     69000   604.2056      -919.96771     -4275.029       4375.6785    
     69010   618.05066     -920.47947     -3648.2338      4372.9507    
     69020   614.97235     -920.5307      -2810.0842      4369.0477    
     69030   575.46435     -919.56348     -1754.4589      4364.2327    
     69040   578.80472     -919.77006     -913.42805      4358.8218    
     69050   586.98236     -920.09616      231.12432      4353.0992    
     69060   573.77254     -919.81104      1563.6471      4347.4198    
     69070   579.28193     -920.02975      2816.34        4342.1981    
     69080   575.16416     -919.96513      3928.9507      4337.8298    
     69090   571.4785      -919.90124      4738.3326      4334.6619    
     69100   570.51547     -919.89824      5282.4956      4332.9612    
     69110   615.43237     -921.16957      5081.7571      4332.8902    
     69120   588.89296     -920.45907      4745.3572      4334.4241    
     69130   588.77594     -920.48572      4045.7181      4337.4652    
     69140   601.78107     -920.87599      2930.3331      4341.8099    
     69150   550.18703     -919.46244      1748.4898      4347.1357    
     69160   558.4863      -919.69032      344.00906      4353.0766    
     69170   608.68766     -921.0561      -1145.5639      4359.1996    
     69180   572.89905     -920.01647     -2330.4125      4365.0447    
     69190   552.77758     -919.3917      -3546.3282      4370.2175    
     69200   616.08984     -921.0503      -4807.0255      4374.3169    
     69210   574.19738     -919.75669     -5192.5767      4376.9527    
     69220   544.65017     -918.78245     -5083.1565      4377.9678    
     69230   642.98725     -921.2998      -5035.5737      4377.3618    
     69240   625.97257     -920.559       -4461.9454      4375.1507    
     69250   545.00484     -918.04605     -3373.3208      4371.5034    
     69260   621.78755     -919.87992     -2636.857       4366.7247    
     69270   632.6891      -919.83586     -1354.5119      4361.0727    
     69280   557.20701     -917.4265       264.95735      4354.9395    
     69290   612.69301     -918.67204      1613.3957      4348.8179    
     69300   658.50848     -919.64317      3218.6372      4343.1516    
     69310   620.05667     -918.32768      4943.826       4338.4497    
     69320   694.82866     -920.21375      5369.7588      4335.2191    
     69330   680.65171     -919.69         5396.5986      4333.6406    
     69340   572.98025     -916.63154      5344.7875      4333.7518    
     69350   635.396       -918.32083      4455.4164      4335.5321    
     69360   642.76025     -918.49369      3602.6582      4338.7557    
     69370   570.08307     -916.46137      3117.9048      4343.1893    
     69380   651.45362     -918.71251      1991.0399      4348.6687    
     69390   717.55584     -920.56507      714.97869      4354.8741    
     69400   625.14442     -918.05923     -305.05235      4361.4271    
     69410   636.794       -918.46314     -2063.7669      4367.9779    
     69420   675.40285     -919.63937     -3936.3326      4373.9813    
     69430   609.04483     -917.92482     -4944.7595      4378.8514    
     69440   593.9643      -917.63473     -5751.2439      4382.22      
     69450   649.49558     -919.32588     -6531.279       4383.7898    
     69460   594.97157     -917.97916     -6217.5477      4383.3146    
     69470   578.87176     -917.69292     -5507.8906      4380.8356    
     69480   644.57107     -919.68883     -4669.4179      4376.5455    
     69490   628.52393     -919.43319     -3037.3741      4370.7124    
     69500   603.08687     -918.91212     -1242.9952      4363.8185    
     69510   650.98104     -920.43043      204.52503      4356.4126    
     69520   644.62521     -920.45981      1676.9374      4348.9621    
     69530   574.46307     -918.69768      3204.4129      4341.9337    
     69540   599.53641     -919.55243      4432.981       4335.8036    
     69550   614.71008     -920.12388      5537.8537      4330.9773    
     69560   574.90387     -919.14998      6413.3999      4327.8174    
     69570   594.49637     -919.80888      6591.3893      4326.6108    
     69580   619.58447     -920.61969      6227.0525      4327.4514    
     69590   568.72946     -919.31342      5650.2705      4330.2757    
     69600   563.86393     -919.26168      4428.3211      4334.9292    
     69610   596.55127     -920.23416      2797.5006      4341.0768    
     69620   552.86259     -919.06135      1385.4226      4348.2571    
     69630   569.34427     -919.53311     -238.79959      4356.0298    
     69640   626.64264     -921.1191      -1947.2591      4363.8964    
     69650   601.30596     -920.40722     -3424.96        4371.3181    
     69660   581.79124     -919.85357     -4792.9674      4377.8028    
     69670   622.60156     -920.97381     -6009.141       4382.8843    
     69680   598.2656      -920.29125     -6653.6347      4386.1483    
     69690   577.79636     -919.72304     -6975.4452      4387.335     
     69700   602.76412     -920.422       -7020.0164      4386.2957    
     69710   553.98534     -919.07184     -6330.9705      4382.9866    
     69720   549.55276     -918.94318     -5194.569       4377.5805    
     69730   595.04458     -920.1807      -3740.0299      4370.4071    
     69740   581.25272     -919.75547     -1696.2631      4361.918     
     69750   584.02868     -919.77502      514.85859      4352.7379    
     69760   619.6129      -920.68939      2652.2332      4343.5576    
     69770   583.6316      -919.60714      4772.1478      4335.0594    
     69780   583.06527     -919.50349      6374.0192      4327.9061    
     69790   621.6859      -920.48488      7620.5685      4322.6266    
     69800   571.51981     -919.00724      8725.3527      4319.6495    
     69810   594.82217     -919.5812       8850.413       4319.3371    
     69820   663.04352     -921.41377      8071.9506      4321.7856    
     69830   586.06739     -919.2388       6894.5316      4326.8266    
     69840   582.57424     -919.11667      4876.6487      4334.1393    
     69850   628.2921      -920.34436      2318.9626      4343.1519    
     69860   560.91184     -918.41483      162.86299      4353.1252    
     69870   579.95916     -918.8634      -1982.2283      4363.3791    
     69880   634.40467     -920.25771     -4061.863       4373.2292    
     69890   596.58207     -919.07268     -5728.7884      4382.0001    
     69900   623.08899     -919.66665     -7417.7786      4389.1051    
     69910   658.16218     -920.48582     -8575.657       4393.9686    
     69920   557.92652     -917.55264     -8725.8281      4396.1754    
     69930   587.45383     -918.21248     -8838.494       4395.5862    
     69940   663.57693     -920.10157     -8353.966       4392.132     
     69950   599.70384     -918.07053     -6625.8716      4385.9433    
     69960   597.1783      -917.72278     -4454.309       4377.5192    
     69970   702.52721     -920.2945      -2473.0555      4367.5138    
     69980   626.38922     -917.80805      217.62029      4356.5827    
     69990   593.72633     -916.57758      2856.1328      4345.5499    
     70000   707.3616      -919.39277      5452.4796      4335.2598    
     70010   687.07509     -918.52059      8018.4393      4326.5448    
     70020   652.27488     -917.33825      9539.3278      4320.1974    
     70030   726.91446     -919.26891      9754.8389      4316.7147    
     70040   666.0285      -917.51868      9677.1173      4316.2356    
     70050   611.96405     -916.02446      9052.6538      4318.7759    
     70060   665.70272     -917.5594       7625.1461      4324.1899    
     70070   651.88124     -917.25099      6038.6705      4332.1111    
     70080   644.23128     -917.14034      4020.6029      4342.0855    
     70090   694.22473     -918.65417      1369.5801      4353.5141    
     70100   692.77003     -918.77593     -1448.82        4365.597     
     70110   633.83912     -917.31317     -4171.2069      4377.4465    
     70120   649.05896     -917.91225     -7099.0468      4388.1548    
     70130   625.08551     -917.42438     -9216.6306      4396.7734    
     70140   614.9283      -917.32299     -10420.144      4402.5645    
     70150   626.60721     -917.83838     -10868.787      4405.0749    
     70160   657.20037     -918.9044      -10419.392      4404.1076    
     70170   668.93951     -919.48263     -9031.9488      4399.7667    
     70180   646.90237     -919.13454     -7321.8273      4392.4493    
     70190   655.11708     -919.62477     -5532.3287      4382.6804    
     70200   640.58017     -919.46873     -3224.7852      4371.0419    
     70210   593.19527     -918.35532     -606.2555       4358.2646    
     70220   575.08841     -917.99144      2055.125       4345.1784    
     70230   597.76887     -918.70997      4784.1236      4332.6329    
     70240   581.009       -918.29383      7620.7731      4321.4953    
     70250   590.15422     -918.5687       10174.01       4312.6503    
     70260   657.7729      -920.47792      11670.458      4306.8749    
     70270   646.6786      -920.24507      12295.648      4304.6614    
     70280   595.20764     -918.92694      11943.167      4306.2301    
     70290   613.59968     -919.57275      10332.167      4311.5034    
     70300   595.07906     -919.20266      8298.3784      4320.066     
     70310   587.18767     -919.11661      5678.5097      4331.3263    
     70320   635.88702     -920.58958      2563.6625      4344.5083    
     70330   620.87634     -920.27952     -529.3724       4358.673     
     70340   592.37477     -919.5719      -3886.7554      4372.8301    
     70350   587.51225     -919.48875     -7157.6259      4385.8999    
     70360   585.05637     -919.45245     -9631.718       4396.8174    
     70370   567.60955     -918.99226     -11315.072      4404.737     
     70380   577.38466     -919.29359     -12375.94       4409.0637    
     70390   592.46167     -919.76112     -12378.516      4409.4277    
     70400   587.38703     -919.69302     -11150.988      4405.8064    
     70410   590.35278     -919.86252     -9395.5668      4398.5638    
     70420   602.03573     -920.28047     -7331.6934      4388.2634    
     70430   583.08544     -919.83921     -4523.1665      4375.5967    
     70440   569.00505     -919.5052      -1453.8278      4361.4616    
     70450   589.47551     -920.09002      1800.855       4346.8568    
     70460   610.5867      -920.66346      5010.2537      4332.8116    
     70470   574.74297     -919.63001      8208.3516      4320.3411    
     70480   601.02115     -920.31374      10311.098      4310.3968    
     70490   605.03157     -920.38903      11762.945      4303.637     
     70500   553.93837     -918.95337      12520.913      4300.4965    
     70510   558.74016     -919.08079      12279.746      4301.1983    
     70520   621.85464     -920.83665      11199.252      4305.6827    
     70530   589.3656      -919.94685      9646.4043      4313.6546    
     70540   577.57416     -919.63283      7166.3697      4324.6469    
     70550   618.50192     -920.75419      4013.2218      4337.9231    
     70560   584.56736     -919.75832      680.99473      4352.5246    
     70570   560.19905     -918.98356     -2700.7116      4367.4049    
     70580   612.87402     -920.28789     -5905.3087      4381.4823    
     70590   619.2118      -920.26047     -8435.2014      4393.7241    
     70600   602.87208     -919.59533     -10461.395      4403.2822    
     70610   616.23449     -919.75798     -11943.116      4409.479     
     70620   593.20891     -918.92371     -12474.886      4411.8322    
     70630   578.14154     -918.33421     -12170.881      4410.1624    
     70640   595.97255     -918.66642     -11028.487      4404.5781    
     70650   575.26576     -917.92795     -8805.5727      4395.483     
     70660   598.45918     -918.39988     -6032.0511      4383.6096    
     70670   647.78194     -919.56714     -2860.7946      4369.8804    
     70680   667.45209     -919.90204      681.45672      4355.3372    
     70690   658.60086     -919.45694      4183.8924      4341.1091    
     70700   679.75299     -919.87128      7128.4819      4328.2827    
     70710   625.92176     -918.23522      9346.2164      4317.7554    
     70720   612.8154      -917.76688      10785.176      4310.1849    
     70730   644.04088     -918.5604       11571.387      4305.9841    
     70740   607.4367      -917.51115      11934.82       4305.375     
     70750   600.74561     -917.32822      11193.915      4308.4299    
     70760   654.58831     -918.85549      9469.2899      4314.9166    
     70770   617.66873     -917.88654      7637.4647      4324.3288    
     70780   637.8203      -918.52015      5164.9483      4336.0868    
     70790   697.00167     -920.25273      1944.6677      4349.4221    
     70800   647.86887     -919.00207     -1218.6399      4363.3417    
     70810   595.68237     -917.6622      -4178.7035      4376.8403    
     70820   650.9845      -919.31167     -7127.4439      4388.9528    
     70830   630.26895     -918.8761      -9236.7249      4398.7505    
     70840   596.83729     -918.10943     -10685.906      4405.5414    
     70850   621.37904     -918.98836     -11761.217      4408.8516    
     70860   595.39195     -918.50159     -11737.954      4408.3751    
     70870   562.95351     -917.8447      -10646.132      4404.1477    
     70880   625.54167     -919.83766     -9128.6092      4396.543     
     70890   644.45779     -920.64894     -6847.737       4386.1088    
     70900   577.74165     -919.05559     -3791.266       4373.6275    
     70910   622.67894     -920.52758     -1036.3697      4360.0782    
     70920   612.42145     -920.4376       1971.172       4346.3798    
     70930   553.13872     -918.92404      5110.2796      4333.4812    
     70940   580.49324     -919.7608       7597.3902      4322.3265    
     70950   608.09499     -920.58266      9439.4731      4313.6557    
     70960   569.31111     -919.54738      10873.587      4308.0028    
     70970   594.42027     -920.28668      11262.785      4305.7391    
     70980   607.35266     -920.70106      10917.299      4306.9543    
     70990   554.2542      -919.28874      9921.4582      4311.5116    
     71000   570.11129     -919.78378      8061.1526      4319.0768    
     71010   608.45978     -920.89121      5543.2748      4329.0649    
     71020   555.16322     -919.43361      3182.9152      4340.7109    
     71030   572.1566      -919.9003       500.89327      4353.2526    
     71040   625.99983     -921.35786     -2614.9035      4365.8345    
     71050   578.69421     -919.98986     -5143.4705      4377.4962    
     71060   550.6612      -919.14203     -7322.2782      4387.418     
     71070   612.30148     -920.7723      -9151.5147      4394.9072    
     71080   583.38629     -919.8925      -10000.457      4399.4126    
     71090   558.92979     -919.15422     -10127.572      4400.6786    
     71100   608.83654     -920.48871     -9750.4539      4398.6945    
     71110   622.50978     -920.83154     -8648.4051      4393.6354    
     71120   583.01106     -919.71616     -7070.1143      4385.8986    
     71130   567.23353     -919.25821     -5136.7052      4376.0348    
     71140   559.68221     -919.00252     -2624.6593      4364.713     
     71150   553.17951     -918.73706      60.763213      4352.7492    
     71160   591.00564     -919.66118      2838.4851      4341.0013    
     71170   600.62768     -919.76626      5861.3698      4330.3465    
     71180   618.4605      -920.09008      8273.1518      4321.6737    
     71190   634.94613     -920.38604      9786.8454      4315.679     
     71200   625.85804     -920.00324      10418.886      4312.7792    
     71210   619.55227     -919.73418      10089.602      4313.1153    
     71220   619.44974     -919.66758      9010.5941      4316.5458    
     71230   580.39048     -918.53469      7620.2256      4322.718     
     71240   603.84462     -919.13834      5558.1321      4331.1625    
     71250   621.88647     -919.57546      3291.6895      4341.2399    
     71260   607.7007      -919.10828      973.25229      4352.2346    
     71270   608.76481     -919.04912     -1589.7822      4363.4036    
     71280   626.65893     -919.43809     -4146.2112      4373.9389    
     71290   605.04689     -918.71811     -6033.2238      4383.0521    
     71300   619.43581     -918.99511     -7631.1254      4390.1353    
     71310   630.15018     -919.16719     -8774.3689      4394.7023    
     71320   600.48113     -918.22767     -9181.4992      4396.4214    
     71330   594.93725     -917.95784     -8799.804       4395.2056    
     71340   648.90738     -919.32397     -7921.5767      4391.2096    
     71350   638.29326     -918.87781     -6219.2194      4384.7781    
     71360   631.70116     -918.53429     -4176.5683      4376.485     
     71370   670.94568     -919.4368      -2136.2701      4367.0086    
     71380   633.18305     -918.18358      144.94469      4357.0315    
     71390   608.70963     -917.29354      2378.123       4347.2731    
     71400   675.23884     -918.90363      4259.9656      4338.4189    
     71410   685.01942     -918.93473      6168.4631      4331.048     
     71420   621.30413     -916.96488      7595.262       4325.7086    
     71430   657.64675     -917.8072       7916.6679      4322.7804    
     71440   674.1842      -918.12453      8102.7828      4322.3524    
     71450   632.76888     -916.8805       7851.2745      4324.4355    
     71460   669.94981     -917.85749      6745.25        4328.9073    
     71470   694.18503     -918.51306      5452.7759      4335.4216    
     71480   656.26879     -917.49117      3755.2608      4343.5529    
     71490   670.14204     -917.94289      1195.899       4352.7426    
     71500   678.73349     -918.28534     -1365.1179      4362.2031    
     71510   600.14792     -916.22872     -3253.5511      4371.1448    
     71520   623.139       -916.99982     -5107.3598      4378.949     
     71530   701.40338     -919.35492     -6571.5269      4385.0429    
     71540   643.58395     -917.99551     -6912.1831      4389.0024    
     71550   618.66913     -917.57109     -7189.3706      4390.7088    
     71560   673.72583     -919.41609     -7308.169       4390.1035    
     71570   617.18005     -918.18311     -6447.9242      4387.2075    
     71580   611.42256     -918.33562     -5380.9784      4382.3062    
     71590   656.11695     -919.88244     -4203.2877      4375.7717    
     71600   626.32565     -919.34314     -2324.8698      4368.0262    
     71610   595.13841     -918.70445     -253.61401      4359.6739    
     71620   673.61075     -921.08728      1095.2768      4351.348     
     71630   627.21052     -919.99503      2652.0539      4343.5034    
     71640   532.55186     -917.50241      4155.7047      4336.6092    
     71650   584.79223     -919.04724      4815.5168      4331.0886    
     71660   588.39706     -919.22031      5656.4442      4327.155     
     71670   549.95747     -918.20524      6631.9957      4325.0397    
     71680   600.20099     -919.64201      6920.705       4324.9946    
     71690   627.72716     -920.45383      6650.2242      4327.0907    
     71700   608.7329      -919.98724      5992.4359      4331.2283    
     71710   647.49194     -921.14225      4574.1227      4337.1736    
     71720   630.82466     -920.77529      2730.7863      4344.4839    
     71730   583.79925     -919.5625       676.71784      4352.581     
     71740   611.00332     -920.40172     -1738.1536      4360.8054    
     71750   571.77718     -919.38102     -3584.0791      4368.4241    
     71760   532.49249     -918.33248     -4823.1383      4374.8548    
     71770   593.67717     -920.05437     -5985.5136      4379.693     
     71780   603.9073      -920.3592      -6501.8521      4382.5999    
     71790   548.09731     -918.82997     -6332.5407      4383.4291    
     71800   584.1734      -919.84632     -6180.2448      4382.2326    
     71810   613.34414     -920.66765     -5635.3393      4379.0954    
     71820   577.57699     -919.68791     -4410.585       4374.2262    
     71830   586.71128     -919.94945     -3095.4857      4368.0178    
     71840   595.93479     -920.20107     -1505.1351      4360.9132    
     71850   558.21398     -919.12994      459.22583      4353.4329    
     71860   598.46786     -920.20222      2049.9011      4346.1756    
     71870   637.27078     -921.21854      3548.3253      4339.6477    
     71880   596.76218     -920.03599      5096.3123      4334.3109    
     71890   594.18819     -919.91091      5998.0514      4330.6067    
     71900   608.43505     -920.25161      6116.4957      4328.7939    
     71910   573.49015     -919.22541      5770.0443      4328.8972    
     71920   570.16979     -919.06917      5164.2035      4330.7958    
     71930   587.2857      -919.45695      4173.9485      4334.2831    
     71940   578.40875     -919.09714      3329.7387      4339.0592    
     71950   604.0856      -919.67112      2402.5512      4344.8484    
     71960   636.53775     -920.40374      1151.5276      4351.3485    
     71970   619.10509     -919.73989     -20.067266      4358.178     
     71980   620.72669     -919.60136     -1467.7311      4364.955     
     71990   641.25996     -919.97631     -3277.9629      4371.2184    
     72000   618.74081     -919.15779     -4904.2246      4376.4088    
     72010   568.04199     -917.56575     -5815.3061      4380.0298    
     72020   592.15439     -918.0458      -6348.8047      4381.7828    
     72030   611.03675     -918.36233     -5967.919       4381.5299    
     72040   637.96849     -918.90613     -5045.1946      4379.394     
     72050   665.0009      -919.46646     -4119.9623      4375.6712    
     72060   651.3537      -918.93085     -3068.0342      4370.675     
     72070   639.54616     -918.47937     -1614.6513      4364.762     
     72080   653.34792     -918.76235     -210.04086      4358.3881    
     72090   623.05795     -917.84044      1245.8367      4352.007     
     72100   614.97317     -917.54847      2689.532       4346.0744    
     72110   666.29401     -918.91715      3915.0477      4341.0321    
     72120   661.77161     -918.76383      4867.1788      4337.2529    
     72130   643.06858     -918.25775      5370.4995      4335.018     
     72140   649.07596     -918.47373      5247.0068      4334.4653    
     72150   646.88017     -918.50135      4787.4466      4335.5546    
     72160   622.83579     -917.95491      4108.1074      4338.1384    
     72170   629.23559     -918.28445      3117.9676      4341.9929    
     72180   627.54161     -918.41855      2181.9347      4346.8192    
     72190   636.40361     -918.88269      1113.5265      4352.3157    
     72200   635.24257     -919.10933     -204.22529      4358.1427    
     72210   612.69999     -918.7722      -1660.1701      4363.887     
     72220   611.72533     -919.04738     -3052.5743      4369.0912    
     72230   618.02395     -919.54019     -4125.8635      4373.3186    
     72240   593.1934      -919.15564     -4597.7336      4376.2391    
     72250   613.34961     -919.99855     -5072.6128      4377.6852    
     72260   611.06898     -920.19613     -5063.5106      4377.5278    
     72270   585.27589     -919.697       -4598.7613      4375.7721    
     72280   588.07162     -919.94506     -3971.5254      4372.5685    
     72290   596.52598     -920.31503     -3254.9128      4368.1235    
     72300   562.72516     -919.47492     -2081.5523      4362.687     
     72310   560.46657     -919.47042     -688.9063       4356.629     
     72320   597.97945     -920.54351      888.39559      4350.3973    
     72330   586.17745     -920.22886      2481.5872      4344.4847    
     72340   579.43985     -920.04354      3600.801       4339.373     
     72350   580.2622      -920.05628      4354.0287      4335.4111    
     72360   587.69089     -920.24588      4880.8857      4332.8294    
     72370   589.60072     -920.27911      5272.7867      4331.7875    
     72380   587.90694     -920.21335      5348.603       4332.3951    
     72390   583.06085     -920.05805      4978.5211      4334.6695    
     72400   606.81905     -920.69569      4015.8551      4338.4875    
     72410   610.43362     -920.77511      2722.2277      4343.5566    
     72420   566.79868     -919.53975      1306.628       4349.4771    
     72430   562.7683      -919.38832     -403.23974      4355.7971    
     72440   574.31777     -919.64236     -2055.8472      4361.9862    
     72450   564.03833     -919.26693     -3191.4077      4367.5338    
     72460   594.30997     -919.99944     -4041.0192      4372.0688    
     72470   620.99824     -920.62134     -4440.5376      4375.3254    
     72480   587.46264     -919.57496     -4388.6271      4377.1761    
     72490   615.57681     -920.24487     -4425.5916      4377.6239    
     72500   655.79387     -921.25291     -4480.9181      4376.6619    
     72510   597.35759     -919.54252     -4117.4989      4374.2918    
     72520   565.70089     -918.5862      -3762.2701      4370.6188    
     72530   591.05737     -919.19822     -3005.9238      4365.7767    
     72540   567.29725     -918.42405     -1551.7067      4360.0216    
     72550   573.5024      -918.46056      110.35573      4353.8063    
     72560   627.57838     -919.79369      1774.1577      4347.6532    
     72570   626.6792      -919.58648      3458.1711      4342.0881    
     72580   611.39023     -918.9884       4552.3645      4337.6181    
     72590   635.68063     -919.49657      5042.1946      4334.5785    
     72600   632.8018      -919.26082      5491.7261      4333.1315    
     72610   609.82231     -918.48663      5649.1758      4333.4057    
     72620   657.59376     -919.69173      4992.6954      4335.4331    
     72630   641.35535     -919.13537      4232.0278      4339.0306    
     72640   624.8343      -918.59745      3167.2234      4343.9525    
     72650   656.41103     -919.4065       1579.3104      4349.8621    
     72660   639.12066     -918.87347      28.907019      4356.2749    
     72670   592.89618     -917.54798     -1227.8974      4362.7115    
     72680   634.3014      -918.65586     -2816.9108      4368.7504    
     72690   642.59504     -918.84718     -4072.6848      4373.906     
     72700   608.96789     -917.89362     -4748.3617      4377.7812    
     72710   601.67936     -917.68341     -5284.3645      4380.1425    
     72720   615.28049     -918.06049     -5441.6567      4380.8272    
     72730   635.34711     -918.63389     -5057.332       4379.7902    
     72740   646.52217     -918.98896     -4303.2923      4377.1539    
     72750   659.19345     -919.43183     -3469.4752      4373.1553    
     72760   626.35609     -918.65735     -2212.8195      4368.0795    
     72770   642.59726     -919.28774     -905.38077      4362.3189    
     72780   680.5675      -920.59124      231.89336      4356.2873    
     72790   613.42021     -919.02873      1395.1025      4350.3522    
     72800   562.5715      -917.908        2496.3012      4344.8758    
     72810   597.00243     -919.14334      3438.9839      4340.1999    
     72820   610.91349     -919.81187      4191.3582      4336.6144    
     72830   580.34083     -919.22292      4786.7757      4334.3542    
     72840   588.9581      -919.69609      4841.0177      4333.5871    
     72850   588.98679     -919.90852      4690.6162      4334.3385    
     72860   581.06332     -919.87664      4284.5182      4336.5582    
     72870   586.41474     -920.18868      3422.384       4340.118     
     72880   602.6066      -920.78702      2202.4859      4344.7498    
     72890   585.2033      -920.43515      1124.0874      4350.0891    
     72900   582.59375     -920.47415     -143.28734      4355.7868    
     72910   583.17656     -920.58234     -1634.173       4361.4414    
     72920   563.86835     -920.11604     -3000.4944      4366.5896    
     72930   554.79379     -919.9101      -4053.9581      4370.7985    
     72940   559.38887     -920.06166     -4687.9476      4373.7328    
     72950   560.33998     -920.09314     -4817.689       4375.1902    
     72960   577.15323     -920.55087     -4688.7519      4375.12      
     72970   603.47551     -921.26462     -4220.4743      4373.5685    
     72980   605.74753     -921.31225     -3513.4852      4370.6826    
     72990   579.70086     -920.57427     -2711.5238      4366.6883    
     73000   562.28858     -920.06583     -1742.9061      4361.8483    
     73010   560.92806     -919.98091     -683.39627      4356.4691    
     73020   567.33294     -920.08524      393.39238      4350.8867    
     73030   556.90553     -919.69453      1728.4122      4345.4486    
     73040   552.83275     -919.45047      3186.3374      4340.5721    
     73050   582.74974     -920.11712      4057.224       4336.6922    
     73060   602.11269     -920.4651       4589.106       4334.0863    
     73070   592.3532      -919.99675      5048.463       4332.9254    
     73080   600.92042     -920.03685      4996.7725      4333.3369    
     73090   601.37438     -919.84841      4670.0243      4335.3151    
     73100   599.8947      -919.61128      4171.0195      4338.7626    
     73110   618.16124     -919.92555      3136.8256      4343.516     
     73120   627.70927     -920.00519      1842.5788      4349.2643    
     73130   606.81026     -919.25561      580.20791      4355.6123    
     73140   623.65024     -919.56816     -1021.0683      4362.1519    
     73150   639.59372     -919.86508     -2927.2619      4368.371     
     73160   595.6763      -918.5216      -4311.7544      4373.6869    
     73170   573.55796     -917.79737     -5130.0348      4377.6544    
     73180   615.02086     -918.84133     -5607.07        4379.9961    
     73190   616.75577     -918.79169     -5442.6547      4380.569     
     73200   619.11446     -918.78283     -5061.7747      4379.4105    
     73210   653.16887     -919.67944     -4695.6593      4376.6355    
     73220   608.23798     -918.4082      -3682.7899      4372.3865    
     73230   591.03477     -917.91871     -2333.7818      4366.9806    
     73240   633.17591     -919.07784     -980.66884      4360.8419    
     73250   612.91036     -918.50753      605.92423      4354.4125    
     73260   622.1485      -918.76248      2247.5813      4348.1899    
     73270   669.83136     -920.0984       3649.2963      4342.6813    
     73280   665.19723     -920.01398      4780.3536      4338.3261    
     73290   636.44469     -919.29027      5248.2091      4335.4649    
     73300   633.72898     -919.30947      5095.2874      4334.2399    
     73310   608.5503      -918.71347      4804.7062      4334.614     
     73320   580.4524      -918.02601      4439.0026      4336.5023    
     73330   612.21371     -918.99073      3641.8342      4339.7771    
     73340   619.06728     -919.26016      2776.3723      4344.2094    
     73350   590.67111     -918.54249      1536.5834      4349.5205    
     73360   605.21326     -919.00293     -26.662825      4355.3241    
     73370   614.07536     -919.29506     -1316.8157      4361.1445    
     73380   598.37704     -918.89684     -2138.3459      4366.5779    
     73390   622.33092     -919.59565     -3178.7001      4371.3378    
     73400   647.29771     -920.3288      -4192.1029      4375.0977    
     73410   635.36695     -920.05645     -4632.8891      4377.547     
     73420   598.2778      -919.09081     -4823.2535      4378.5296    
     73430   623.75519     -919.86701     -5035.2114      4377.9726    
     73440   610.15933     -919.56348     -4836.7607      4375.823     
     73450   559.87731     -918.23548     -4153.7898      4372.1449    
     73460   556.5138      -918.18626     -2982.6967      4367.1597    
     73470   614.83283     -919.83132     -1449.315       4361.24      
     73480   614.0821      -919.82969      501.13134      4354.8816    
     73490   595.17498     -919.32011      2120.1025      4348.6811    
     73500   632.2045      -920.36589      3129.0755      4343.14      
     73510   628.77556     -920.29869      4130.2096      4338.5938    
     73520   600.31467     -919.54962      4780.2137      4335.3409    
     73530   592.15363     -919.36781      4974.5818      4333.5812    
     73540   585.4743      -919.22772      4883.1226      4333.3787    
     73550   573.17937     -918.92265      4626.3386      4334.71      
     73560   629.15654     -920.51616      4036.0967      4337.4914    
     73570   610.31106     -920.04012      3456.1717      4341.5555    
     73580   582.69409     -919.32519      2441.4677      4346.713     
     73590   612.70909     -920.20733      742.60438      4352.64      
     73600   605.14199     -920.04487     -815.58904      4358.8302    
     73610   563.76655     -918.93717     -2268.1521      4364.7863    
     73620   576.68649     -919.32277     -3621.7262      4370.0434    
     73630   596.89564     -919.90176     -4451.1671      4374.1772    
     73640   582.58192     -919.51981     -4734.2803      4376.9196    
     73650   607.79941     -920.23938     -5021.1029      4378.1556    
     73660   625.75872     -920.77049     -4889.3228      4377.8041    
     73670   600.31942     -920.11604     -4227.9748      4375.9086    
     73680   592.49426     -919.96391     -3606.2935      4372.6634    
     73690   597.59529     -920.18329     -3164.2892      4368.2632    
     73700   562.16705     -919.28071     -2163.4554      4362.8759    
     73710   562.44039     -919.36369     -881.86286      4356.8098    
     73720   575.75469     -919.79921      653.71316      4350.4769    
     73730   563.53793     -919.51495      2223.6823      4344.3546    
     73740   570.10528     -919.73982      3589.1269      4338.9301    
     73750   603.16598     -920.69722      4770.4143      4334.6325    
     73760   598.79295     -920.62158      5731.4601      4331.8285    
     73770   600.92043     -920.74116      6039.3191      4330.8056    
     73780   602.75869     -920.86849      5622.1512      4331.66      
     73790   591.20572     -920.63668      4684.6053      4334.272     
     73800   580.50928     -920.43261      3373.6486      4338.3565    
     73810   555.66676     -919.82751      2193.94        4343.5257    
     73820   533.09894     -919.25962      989.27525      4349.4086    
     73830   571.1324      -920.34788     -442.7726       4355.6213    
     73840   585.36405     -920.75346     -1725.8477      4361.7249    
     73850   572.72761     -920.39921     -2881.716       4367.3081    
     73860   578.06703     -920.53023     -3943.1442      4371.9967    
     73870   584.15471     -920.66976     -4659.9972      4375.4545    
     73880   574.27871     -920.35636     -4994.4784      4377.4474    
     73890   577.49608     -920.39753     -5165.2069      4377.8548    
     73900   578.0041      -920.35209     -5033.6411      4376.6238    
     73910   564.77703     -919.91149     -4388.4629      4373.7999    
     73920   589.95565     -920.51905     -3386.5291      4369.5845    
     73930   602.70625     -920.76193     -2328.4686      4364.2901    
     73940   560.52382     -919.46748     -1043.6812      4358.2622    
     73950   548.58304     -918.99194      437.6997       4351.9101    
     73960   594.78016     -920.09211      2020.283       4345.6985    
     73970   602.17241     -920.0843       3654.5244      4340.1276    
     73980   585.28208     -919.40048      4727.1443      4335.6916    
     73990   619.50384     -920.13505      5166.8115      4332.7217    
     74000   611.91819     -919.71364      5570.1427      4331.3745    
     74010   613.45499     -919.56983      5615.3129      4331.7656    
     74020   634.90254     -919.99617      5161.1064      4333.9131    
     74030   629.03525     -919.69034      4276.4019      4337.6835    
     74040   592.11301     -918.54604      3115.1083      4342.8145    
     74050   616.92544     -919.12556      1623.6822      4348.944     
     74060   625.43987     -919.25303      174.76175      4355.6198    
     74070   600.80649     -918.47051     -1428.2463      4362.3803    
     74080   606.4003      -918.52987     -3110.0579      4368.7188    
     74090   633.41233     -919.18712     -4519.3202      4374.1015    
     74100   601.24951     -918.21387     -5175.0322      4378.0844    
     74110   588.88174     -917.80207     -5395.6193      4380.4411    
     74120   640.7726      -919.18119     -5591.705       4381.0788    
     74130   636.89602     -919.02895     -5185.4277      4379.9503    
     74140   632.53534     -918.89288     -4522.7183      4377.1685    
     74150   631.00117     -918.85549     -3473.6506      4372.9516    
     74160   637.15053     -919.05025     -2196.265       4367.6292    
     74170   642.79622     -919.25003     -948.10437      4361.6028    
     74180   648.23886     -919.47037      343.85151      4355.2725    
     74190   616.08792     -918.66835      1966.2936      4349.0597    
     74200   619.1617      -918.85905      3206.9317      4343.4529    
     74210   656.82135     -920.04653      3941.0483      4338.8394    
     74220   606.08019     -918.81994      4627.1894      4335.4628    
     74230   567.18083     -917.9367       4963.4525      4333.5286    
     74240   591.85905     -918.83737      4776.0947      4333.1379    
     74250   606.86532     -919.50202      4450.4203      4334.2466    
     74260   587.43481     -919.23842      4083.8151      4336.7626    
     74270   567.55025     -918.96501      3442.0581      4340.5747    
     74280   596.8442      -920.06141      2322.6867      4345.4806    
     74290   619.84415     -920.99482      1164.7154      4351.1501    
     74300   609.22933     -920.99514     -234.22408      4357.2153    
     74310   582.20711     -920.50819     -1999.7417      4363.2313    
     74320   558.83178     -920.07068     -3539.2511      4368.6523    
     74330   554.75716     -920.11148     -4554.6383      4372.9886    
     74340   591.36361     -921.2448      -5098.6233      4375.9049    
     74350   589.21286     -921.27984     -5048.9866      4377.2244    
     74360   551.87787     -920.31103     -4925.0158      4376.9376    
     74370   561.21472     -920.61153     -4754.0296      4375.0794    
     74380   569.77062     -920.8702      -4246.3671      4371.7083    
     74390   537.52426     -919.97563     -3246.1329      4366.9892    
     74400   533.81383     -919.84877     -2012.4683      4361.2315    
     74410   552.2631      -920.30705     -466.72296      4354.8333    
     74420   565.04735     -920.58341      1153.0682      4348.2759    
     74430   573.88641     -920.73277      2781.5983      4342.0715    
     74440   591.58364     -921.11873      4217.675       4336.7268    
     74450   593.01402     -921.05179      5228.9452      4332.6859    
     74460   593.01601     -920.95334      5584.6319      4330.2593    
     74470   567.96192     -920.16426      5610.7185      4329.5729    
     74480   565.22625     -919.99554      5457.7221      4330.6435    
     74490   571.11127     -920.05642      4918.1218      4333.4288    
     74500   579.62297     -920.18214      3776.2062      4337.7631    
     74510   566.34211     -919.69224      2532.9431      4343.3185    
     74520   583.86677     -920.04603      1070.8225      4349.707     
     74530   602.96088     -920.42809     -295.93159      4356.4855    
     74540   611.83422     -920.52406     -1684.2801      4363.2188    
     74550   614.65792     -920.45787     -3155.5746      4369.4619    
     74560   591.8106      -919.68777     -4393.0196      4374.7473    
     74570   585.71107     -919.38898     -5254.5529      4378.6736    
     74580   604.29406     -919.77815     -5834.2486      4380.9492    
     74590   573.78734     -918.81018     -6083.5835      4381.3789    
     74600   562.92289     -918.39393     -5947.998       4379.8733    
     74610   596.28254     -919.19849     -5420.2225      4376.466     
     74620   612.00793     -919.51094     -4145.0567      4371.3338    
     74630   591.56299     -918.82434     -2203.6667      4364.8796    
     74640   614.26229     -919.33706     -272.14138      4357.6998    
     74650   620.4547      -919.38764      1675.1867      4350.4116    
     74660   645.09075     -919.96087      3464.49        4343.6268    
     74670   672.6986      -920.64084      4766.1705      4337.8996    
     74680   638.33136     -919.63897      5656.9782      4333.6442    
     74690   611.83515     -918.88694      5845.4025      4331.1307    
     74700   623.29044     -919.20711      5597.2428      4330.434     
     74710   607.97251     -918.79946      5155.8484      4331.4915    
     74720   578.29378     -917.99883      4586.6597      4334.1796    
     74730   591.1285      -918.37569      3587.8794      4338.3237    
     74740   585.42256     -918.22746      2533.0742      4343.6381    
     74750   611.52274     -918.95583      1323.346       4349.7982    
     74760   659.45735     -920.29631     -122.04777      4356.427     
     74770   622.27538     -919.29248     -1358.9368      4363.0849    
     74780   593.08962     -918.52046     -2767.7687      4369.3658    
     74790   629.22764     -919.56898     -4471.9291      4374.8083    
     74800   617.83107     -919.31619     -5392.3961      4378.8904    
     74810   595.92888     -918.7941      -5659.9952      4381.297     
     74820   632.38845     -919.92708     -5801.2787      4381.9093    
     74830   634.17401     -920.15421     -5525.805       4380.6789    
     74840   597.58097     -919.37543     -4842.8707      4377.681     
     74850   595.05178     -919.59776     -3965.6505      4373.1187    
     74860   592.98466     -919.89144     -2919.2142      4367.2651    
     74870   574.90406     -919.7722      -1638.7933      4360.4528    
     74880   556.47986     -919.63839     -216.54052      4353.0834    
     74890   529.74825     -919.21917      1540.9815      4345.6118    
     74900   554.10182     -920.1533       3379.2317      4338.5856    
     74910   605.70365     -921.80876      4937.9405      4332.5751    
     74920   581.70243     -921.33277      6123.737       4328.0708    
     74930   545.24398     -920.46182      6766.3668      4325.4454    
     74940   579.89737     -921.53432      6613.1863      4324.9037    
     74950   571.76162     -921.39899      6024.4077      4326.4255    
     74960   535.89698     -920.46789      5295.3823      4329.8572    
     74970   555.85217     -921.05984      4079.2644      4334.9822    
     74980   556.20545     -921.07893      2599.3119      4341.4488    
     74990   552.66483     -920.96264      943.65056      4348.8124    
     75000   572.96247     -921.48235     -937.84604      4356.5582    
     75010   538.60315     -920.45699     -2572.978       4364.1104    
     75020   526.31693     -920.01878     -4223.3334      4370.9295    
     75030   548.95902     -920.5163      -5456.0306      4376.4901    
     75040   577.20547     -921.1456      -6217.6991      4380.3768    
     75050   559.48883     -920.49028     -6406.9659      4382.3272    
     75060   578.54307     -920.85733     -6301.2795      4382.2459    
     75070   594.37065     -921.12992     -5742.7656      4380.1532    
     75080   586.56438     -920.75613     -4909.2525      4376.2034    
     75090   554.50044     -919.71623     -3796.0453      4370.6505    
     75100   544.62276     -919.28942     -2453.748       4363.8335    
     75110   558.63446     -919.50447     -444.85861      4356.1901    
     75120   610.82825     -920.76055      1563.3217      4348.3323    
     75130   609.7589      -920.53653      3330.1198      4340.8907    
     75140   598.47605     -920.0534       4866.4483      4334.4235    
     75150   584.53657     -919.51278      5964.3678      4329.4165    
     75160   589.8126      -919.52272      6559.6882      4326.2217    
     75170   590.72746     -919.42432      6920.5332      4325.0509    
     75180   596.48842     -919.47888      6756.4746      4326.0309    
     75190   620.1687      -920.04866      6144.1028      4329.1438    
     75200   612.67733     -919.77388      5151.0979      4334.234     
     75210   605.71958     -919.53092      3591.6935      4341.019     
     75220   624.0602      -919.99665      1492.246       4349.0404    
     75230   613.70378     -919.66787     -794.17674      4357.6644    
     75240   582.88295     -918.769       -2739.2692      4366.1888    
     75250   580.46216     -918.64879     -4404.5253      4373.9835    
     75260   578.03036     -918.51472     -5696.4797      4380.4997    
     75270   613.49788     -919.42792     -6607.6539      4385.2956    
     75280   667.35555     -920.86879     -7160.1677      4388.0419    
     75290   618.3706      -919.49045     -7066.4376      4388.5386    
     75300   570.88584     -918.1753      -6735.5722      4386.7669    
     75310   611.80763     -919.3199      -6179.7328      4382.8001    
     75320   610.02922     -919.28138     -4929.3606      4376.8072    
     75330   590.7639      -918.76159     -3336.5249      4369.1537    
     75340   589.6597      -918.73551     -1349.3496      4360.3376    
     75350   617.61954     -919.50208      998.44434      4350.9802    
     75360   642.53769     -920.17766      3525.0889      4341.8212    
     75370   657.66965     -920.59825      5504.8002      4333.6398    
     75380   616.63615     -919.48816      6785.285       4327.0637    
     75390   569.1582      -918.21164      7591.2564      4322.5194    
     75400   606.55531     -919.30542      7852.6502      4320.2805    
     75410   596.26666     -919.09343      7782.0223      4320.4692    
     75420   566.33618     -918.35278      7295.3817      4323.1012    
     75430   588.60421     -919.07158      6385.2908      4328.0743    
     75440   633.87522     -920.45211      4990.1674      4335.1524    
     75450   639.73356     -920.77893      3111.8931      4343.9459    
     75460   623.91629     -920.54939      598.01983      4353.8938    
     75470   580.61407     -919.58127     -1995.0374      4364.2397    
     75480   564.89554     -919.37815     -4435.556       4374.1644    
     75490   601.46013     -920.64374     -6658.6568      4382.867     
     75500   577.82321     -920.25369     -8297.6201      4389.6068    
     75510   529.77903     -919.16511     -9298.902       4393.8054    
     75520   533.22504     -919.47824     -9717.4941      4395.0773    
     75530   548.96498     -920.11456     -9206.7171      4393.2434    
     75540   557.06268     -920.52116     -7769.3687      4388.4173    
     75550   566.691       -920.94621     -5771.4072      4381.0096    
     75560   595.09734     -921.87189     -3623.3113      4371.6213    
     75570   595.27432     -921.99346     -1242.9784      4360.926     
     75580   583.57494     -921.75953      1250.6779      4349.6711    
     75590   563.72367     -921.26785      3539.2991      4338.6353    
     75600   543.46448     -920.72755      5656.9015      4328.5491    
     75610   542.33231     -920.68564      7378.3769      4320.0809    
     75620   522.29563     -920.0894       8789.2742      4313.7916    
     75630   517.09369     -919.87995      9725.562       4310.1424    
     75640   554.16048     -920.82332      10073.463      4309.4622    
     75650   576.66096     -921.34987      9642.2337      4311.9063    
     75660   553.28241     -920.60093      8356.0928      4317.4014    
     75670   542.23411     -920.18411      6316.6132      4325.6207    
     75680   575.94425     -920.97781      4039.1482      4336.0062    
     75690   589.04365     -921.16403      1496.1646      4347.8871    
     75700   579.5716      -920.70197     -1274.4406      4360.4942    
     75710   584.51554     -920.62039     -4093.8053      4372.957     
     75720   587.13999     -920.45949     -6617.745       4384.3649    
     75730   596.49044     -920.48755     -8660.5708      4393.8699    
     75740   610.74818     -920.67288     -10170.293      4400.7559    
     75750   569.4962      -919.35466     -11030.73       4404.4743    
     75760   549.51271     -918.66686     -11321.896      4404.6769    
     75770   595.81131     -919.84551     -10773.828      4401.215     
     75780   584.38893     -919.44745     -9132.859       4394.2239    
     75790   562.42675     -918.78135     -6837.8732      4384.1836    
     75800   572.68976     -919.00678     -4103.3302      4371.8073    
     75810   589.43971     -919.39366     -955.95476      4357.9626    
     75820   616.78585     -920.05556      2513.2068      4343.652     
     75830   626.22028     -920.20969      5985.784       4329.9716    
     75840   599.32706     -919.35522      9104.2833      4318.012     
     75850   601.65129     -919.31883      11324.729      4308.7417    
     75860   647.11105     -920.50684      12550.135      4302.8684    
     75870   612.18168     -919.50696      13002.659      4300.8102    
     75880   583.74471     -918.72853      12482.03       4302.7477    
     75890   627.10986     -919.97188      10829.401      4308.5776    
     75900   621.16351     -919.86763      8587.2769      4317.8763    
     75910   590.7399      -919.09123      5834.7239      4330.0173    
     75920   597.41023     -919.32628      2445.7393      4344.189     
     75930   604.49763     -919.54065     -985.58202      4359.3758    
     75940   603.40699     -919.49826     -4411.8574      4374.4931    
     75950   589.78458     -919.08052     -7583.5539      4388.4288    
     75960   593.85483     -919.13858     -10187.529      4400.1244    
     75970   603.6647      -919.35865     -12025.259      4408.6849    
     75980   604.63738     -919.35721     -12941.163      4413.4558    
     75990   584.62026     -918.80601     -13043.461      4414.079     
     76000   567.92482     -918.37094     -12364.009      4410.4742    
     76010   614.68009     -919.71596     -10822.67       4402.8326    
     76020   624.37392     -920.04318     -8157.1905      4391.6516    
     76030   601.48427     -919.46765     -4956.0001      4377.7742    
     76040   584.00734     -919.01793     -1425.8045      4362.2375    
     76050   611.0562      -919.7661       2326.409       4346.1801    
     76060   642.30389     -920.60212      6061.2922      4330.797     
     76070   628.85817     -920.19465      9284.0646      4317.2514    
     76080   604.78396     -919.50992      11583.409      4306.5319    
     76090   584.15757     -918.94484      12898.501      4299.3449    
     76100   596.64874     -919.33535      13277.825      4296.0929    
     76110   594.34774     -919.35683      13143.992      4296.9203    
     76120   579.59552     -919.07263      12153.534      4301.8017    
     76130   570.99932     -918.98171      10150.288      4310.4676    
     76140   598.22093     -919.89311      7446.9201      4322.3555    
     76150   616.28755     -920.55312      4126.0763      4336.6642    
     76160   588.44252     -919.92565      573.21334      4352.3925    
     76170   566.03764     -919.41771     -3104.4494      4368.4239    
     76180   569.39542     -919.58474     -6586.2125      4383.5806    
     76190   596.92206     -920.40605     -9541.4012      4396.7221    
     76200   572.93578     -919.79657     -11567.107      4406.8697    
     76210   572.24825     -919.8451      -12819.385      4413.3238    
     76220   612.59369     -921.06632     -13454.392      4415.644     
     76230   607.9065      -921.08626     -13060.989      4413.6233    
     76240   569.05905     -920.19108     -11752.639      4407.3869    
     76250   552.1817      -919.91228     -9807.6572      4397.3641    
     76260   552.01426     -920.07757     -6935.4279      4384.2251    
     76270   564.93461     -920.57041     -3525.5397      4368.9185    
     76280   557.9252      -920.46071      48.017752      4352.5563    
     76290   544.66251     -920.12047      3667.8304      4336.2945    
     76300   542.7947      -920.03917      7099.0857      4321.2691    
     76310   562.3472      -920.50884      10166.965      4308.5336    
     76320   563.75689     -920.45199      12599.944      4299.0024    
     76330   552.8677      -920.05159      14163.484      4293.381     
     76340   575.71148     -920.59682      14677.092      4292.1113    
     76350   611.45805     -921.51669      14204.114      4295.3341    
     76360   589.55838     -920.85812      12585.602      4302.8964    
     76370   573.29607     -920.36264      9793.8862      4314.3102    
     76380   620.57396     -921.60152      6015.6897      4328.7307    
     76390   602.95868     -920.99136      2096.6522      4345.0167    
     76400   545.8118      -919.24291     -1872.4596      4361.935     
     76410   560.56895     -919.4263      -5769.8509      4378.2155    
     76420   572.95941     -919.47562     -8949.8825      4392.6112    
     76430   559.71619     -918.78296     -11187.336      4404.0859    
     76440   588.65385     -919.25953     -12674.585      4411.9017    
     76450   619.33187     -919.79837     -13295.898      4415.5854    
     76460   570.72273     -918.19469     -12836.447      4414.9684    
     76470   624.9139      -919.50606     -11964.525      4410.2171    
     76480   653.98245     -920.15928     -10194.64       4401.6857    
     76490   599.70989     -918.5578      -7395.5873      4390.0107    
     76500   586.32979     -918.11278     -4245.6116      4376.1327    
     76510   651.92126     -919.851       -965.754        4361.1045    
     76520   636.62727     -919.3368       2615.6562      4346.0078    
     76530   625.27269     -918.93747      5878.0929      4331.957     
     76540   649.82313     -919.54332      8502.8328      4319.9409    
     76550   608.01406     -918.32539      10695.867      4310.7369    
     76560   601.85974     -918.12047      11908.548      4304.9447    
     76570   632.77985     -918.97806      12243.5        4302.8777    
     76580   590.86074     -917.84559      12102.269      4304.5961    
     76590   615.97246     -918.60364      10780.686      4309.9859    
     76600   666.47911     -920.09409      8650.445       4318.6183    
     76610   623.73177     -919.02087      6204.7228      4329.8249    
     76620   592.51211     -918.26238      3344.5365      4342.8262    
     76630   650.69542     -919.97164      159.18293      4356.7138    
     76640   654.5866      -920.17328     -2729.6513      4370.4936    
     76650   607.73948     -918.96529     -5587.7484      4383.2288    
     76660   592.89989     -918.63288     -8279.7477      4394.0146    
     76670   599.83185     -918.90298     -10547.271      4402.0028    
     76680   576.36966     -918.337       -11563.686      4406.5219    
     76690   570.18696     -918.26186     -11726.739      4407.2758    
     76700   595.7418      -919.08327     -10965.462      4404.2807    
     76710   626.67474     -920.0772      -9376.7003      4397.8531    
     76720   622.5356      -920.11809     -7057.9441      4388.5811    
     76730   607.62198     -919.86413     -4383.1681      4377.2678    
     76740   610.93224     -920.10582     -1719.4373      4364.8118    
     76750   622.96664     -920.58388      846.51226      4352.0879    
     76760   589.33132     -919.7803       3493.3562      4339.9214    
     76770   574.16287     -919.46785      5922.6431      4329.1157    
     76780   570.42849     -919.45601      7897.5786      4320.3796    
     76790   564.50127     -919.37267      9422.5063      4314.2662    
     76800   580.01496     -919.88732      10199.573      4311.1665    
     76810   590.09795     -920.26713      10048.401      4311.2441    
     76820   565.08795     -919.68401      9411.9723      4314.4029    
     76830   590.18221     -920.4992       8069.696       4320.3824    
     76840   618.94648     -921.43089      6027.1949      4328.725     
     76850   573.40216     -920.30177      3767.1716      4338.782     
     76860   578.86995     -920.58217      1083.4127      4349.8171    
     76870   580.30101     -920.74191     -1531.7339      4360.9919    
     76880   545.14759     -919.87706     -3717.8141      4371.4893    
     76890   547.69297     -920.05199     -5888.9357      4380.6109    
     76900   564.96066     -920.64761     -7756.3139      4387.6945    
     76910   543.70454     -920.19216     -8731.061       4392.1958    
     76920   572.45106     -921.15891     -9081.1216      4393.8417    
     76930   582.07677     -921.64446     -8808.7185      4392.58      
     76940   521.65166     -920.20605     -7787.4216      4388.5683    
     76950   517.01085     -920.30121     -6434.1493      4382.1874    
     76960   575.73498     -922.15851     -4863.5399      4373.9244    
     76970   543.28739     -921.46782     -2463.8953      4364.3518    
     76980   543.55328     -921.64763     -37.836151      4354.238     
     76990   556.26241     -922.1425       2021.1885      4344.3497    
     77000   523.47625     -921.33278      3917.457       4335.3303    
     77010   536.05292     -921.74697      5457.7629      4327.7356    
     77020   524.25627     -921.45282      6688.1321      4322.0017    
     77030   484.04215     -920.33262      7658.7046      4318.4597    
     77040   529.89272     -921.56905      7958.5633      4317.3401    
     77050   562.72809     -922.41235      7664.9432      4318.6847    
     77060   515.39652     -921.00836      7010.319       4322.361     
     77070   546.9335      -921.76931      5745.3347      4328.118     
     77080   573.77132     -922.35166      4114.9039      4335.5404    
     77090   529.05979     -920.92004      2186.1455      4344.101     
     77100   545.30026     -921.15055     -111.0856       4353.1816    
     77110   552.80996     -921.09299     -2124.5984      4362.073     
     77120   541.85089     -920.50707     -3595.8451      4370.1522    
     77130   578.8427      -921.24744     -5120.7478      4376.9464    
     77140   586.53416     -921.18051     -6266.4705      4382.0072    
     77150   558.20554     -920.15511     -6787.4433      4385.0065    
     77160   603.26095     -921.20192     -7062.726       4385.8017    
     77170   598.6745      -920.9012      -6884.0683      4384.3556    
     77180   518.88663     -918.55317     -6274.4611      4380.7669    
     77190   528.01767     -918.68589     -5261.9914      4375.2747    
     77200   575.3134      -919.85814     -3772.9727      4368.243     
     77210   557.71702     -919.21883     -1601.2475      4360.1851    
     77220   589.86943     -919.95638      806.30212      4351.7962    
     77230   613.84736     -920.45608      3058.6435      4343.8266    
     77240   606.71644     -920.10272      4782.9482      4336.9579    
     77250   631.51801     -920.65513      5789.899       4331.6921    
     77260   629.18385     -920.4785       6579.9606      4328.3222    
     77270   594.34073     -919.42719      6929.1472      4327.0455    
     77280   609.56321     -919.78402      6609.1595      4327.9244    
     77290   636.21187     -920.47165      5814.7613      4330.8363    
     77300   602.44548     -919.49958      4442.0027      4335.5017    
     77310   579.16382     -918.82479      2752.8317      4341.4806    
     77320   571.03135     -918.55574      1270.7988      4348.2495    
     77330   583.54645     -918.84044     -188.38322      4355.3322    
     77340   601.88189     -919.26837     -1791.007       4362.2633    
     77350   598.56534     -919.08516     -3194.6293      4368.5469    
     77360   606.97611     -919.22452     -4109.4654      4373.76      
     77370   633.02362     -919.85637     -5018.1379      4377.6057    
     77380   623.1648      -919.5055      -5507.3855      4379.8273    
     77390   591.07535     -918.55418     -5713.8296      4380.2816    
     77400   588.01171     -918.41322     -5410.4155      4378.9327    
     77410   597.90288     -918.62553     -4320.1862      4375.9098    
     77420   646.592       -919.91183     -2967.1829      4371.5673    
     77430   673.40554     -920.60503     -1715.8215      4366.3451    
     77440   636.03296     -919.5454      -515.17939      4360.6553    
     77450   638.16139     -919.60732      480.66161      4354.8768    
     77460   630.01647     -919.40457      1450.6704      4349.3287    
     77470   556.40616     -917.38759      2531.9451      4344.3164    
     77480   585.7134      -918.22012      3350.0522      4340.1555    
     77490   628.42083     -919.42232      4094.3487      4337.0956    
     77500   594.69856     -918.51358      4783.8878      4335.353     
     77510   606.97861     -918.894        5063.3934      4335.1166    
     77520   655.38599     -920.30232      4762.2631      4336.453     
     77530   622.63123     -919.49321      4240.7375      4339.267     
     77540   607.51948     -919.20292      3111.9084      4343.3722    
     77550   615.31465     -919.575        1567.563       4348.4135    
     77560   572.89495     -918.56305      337.83221      4353.9246    
     77570   588.59092     -919.1679      -949.37776      4359.5025    
     77580   631.8357      -920.56143     -2252.911       4364.7438    
     77590   589.55444     -919.60252     -3116.404       4369.252     
     77600   568.5045      -919.22433     -3800.4087      4372.7476    
     77610   627.90915     -921.0973      -4432.1886      4375.0144    
     77620   600.43345     -920.57476     -4577.5735      4375.8741    
     77630   565.70748     -919.83793     -4511.8233      4375.2819    
     77640   573.64014     -920.26698     -4400.1402      4373.2632    
     77650   572.48452     -920.42366     -3692.1182      4369.8841    
     77660   584.9278      -920.93586     -2503.9293      4365.3799    
     77670   602.23375     -921.57335     -1486.3642      4360.1171    
     77680   536.45644     -919.87571     -458.97481      4354.434     
     77690   509.27806     -919.20155      567.54523      4348.657     
     77700   544.9175      -920.22903      1701.5517      4343.111     
     77710   540.64396     -920.11094      3099.767       4338.1532    
     77720   534.6981      -919.91452      4393.7636      4334.2041    
     77730   584.83333     -921.25108      5217.1906      4331.6475    
     77740   609.5029      -921.86977      5663.6681      4330.7337    
     77750   604.59026     -921.67649      5523.5006      4331.583     
     77760   596.89195     -921.41603      4794.5561      4334.1437    
     77770   562.93637     -920.42538      3677.6716      4338.1897    
     77780   559.88411     -920.27787      2323.9492      4343.3701    
     77790   596.65259     -921.21287      903.62536      4349.2636    
     77800   570.35833     -920.37736     -541.06503      4355.4243    
     77810   540.62848     -919.43046     -1860.6133      4361.4011    
     77820   570.55261     -920.10956     -3146.2444      4366.7707    
     77830   559.91368     -919.6302      -4050.3766      4371.1369    
     77840   538.19694     -918.82762     -4559.4518      4374.2116    
     77850   585.47181     -919.91497     -4742.2136      4375.8343    
     77860   619.98503     -920.6266      -4583.401       4375.953     
     77870   610.15743     -920.1246      -4205.1842      4374.6227    
     77880   613.08752     -920.00807     -3761.0351      4371.9651    
     77890   605.85637     -919.63614     -2880.0971      4368.1423    
     77900   596.04176     -919.21955     -1723.9608      4363.437     
     77910   614.35537     -919.60486     -587.15626      4358.2138    
     77920   601.49365     -919.14481      612.52472      4352.8402    
     77930   586.42342     -918.64032      1966.7267      4347.6988    
     77940   650.63107     -920.35211      3041.0583      4343.1989    
     77950   647.32722     -920.21829      3717.4466      4339.6707    
     77960   577.49903     -918.2625       4157.7582      4337.3259    
     77970   599.20387     -918.85471      4147.2209      4336.2845    
     77980   621.64775     -919.46993      4087.227       4336.5524    
     77990   605.54141     -919.02602      3894.1351      4338.1046    
     78000   606.26489     -919.05761      3259.4676      4340.8676    
     78010   603.57482     -918.99736      2406.8866      4344.649     
     78020   597.07625     -918.82881      1564.4966      4349.1886    
     78030   637.02098     -919.9535       550.06354      4354.2125    
     78040   630.30439     -919.79436     -535.87949      4359.4063    
     78050   591.6628      -918.75514     -1723.6014      4364.4249    
     78060   607.38183     -919.22346     -2865.6514      4368.8945    
     78070   634.86866     -920.0235      -3774.5933      4372.4564    
     78080   615.11306     -919.52856     -4279.604       4374.8256    
     78090   582.94712     -918.69446     -4580.773       4375.8366    
     78100   606.3626      -919.40769     -4768.3673      4375.391     
     78110   609.31252     -919.55798     -4336.1733      4373.4501    
     78120   598.17669     -919.32626     -3469.461       4370.1483    
     78130   582.38932     -918.96175     -2212.6492      4365.7699    
     78140   598.15856     -919.46908     -960.02759      4360.7073    
     78150   602.28802     -919.64873      230.07937      4355.3612    
     78160   617.07121     -920.12968      1295.4012      4350.1075    
     78170   610.15705     -920.01592      2345.4387      4345.2848    
     78180   614.79563     -920.23621      3203.0695      4341.215     
     78190   605.56708     -920.08553      3696.0786      4338.1595    
     78200   581.75984     -919.54035      3976.3174      4336.2709    
     78210   566.41717     -919.2288       4192.5463      4335.6391    
     78220   573.75708     -919.54549      4073.9501      4336.3178    
     78230   575.66073     -919.70951      3859.4953      4338.2783    
     78240   586.89192     -920.13565      3213.5499      4341.4427    
     78250   587.78592     -920.27836      2091.7241      4345.6093    
     78260   594.50574     -920.58905      769.88919      4350.4338    
     78270   585.70248     -920.47495     -443.64442      4355.5103    
     78280   570.03125     -920.17187     -1563.5315      4360.4534    
     78290   557.65659     -919.95547     -2482.5939      4364.9109    
     78300   569.94064     -920.41902     -3240.4854      4368.5879    
     78310   597.13589     -921.30625     -3919.1035      4371.2375    
     78320   583.06301     -921.06309     -4209.8023      4372.6525    
     78330   557.92713     -920.51957     -4245.6984      4372.737     
     78340   545.05094     -920.31218     -4161.1223      4371.4761    
     78350   549.12315     -920.56675     -3764.5491      4368.9036    
     78360   559.80053     -920.99734     -2963.0146      4365.1533    
     78370   557.47388     -921.05779     -1815.0663      4360.4835    
     78380   540.98441     -920.70872     -678.47849      4355.2505    
     78390   530.04797     -920.48798      435.3751       4349.8183    
     78400   541.47731     -920.86045      1637.1397      4344.5408    
     78410   558.59209     -921.36424      2938.3271      4339.7969    
     78420   569.47409     -921.67643      4063.3185      4335.9846    
     78430   554.6387      -921.25679      4913.0708      4333.4503    
     78440   568.86494     -921.62756      5143.2857      4332.4467    
     78450   575.11253     -921.75922      4670.2793      4333.0417    
     78460   534.38255     -920.56506      3885.9551      4335.099     
     78470   531.22974     -920.38136      2942.5439      4338.376     
     78480   540.11137     -920.47819      2021.7298      4342.5862    
     78490   541.73736     -920.3194       1032.755       4347.4391    
     78500   567.66484     -920.78051      98.994947      4352.6309    
     78510   586.0199      -920.98558     -718.80277      4357.8685    
     78520   583.65265     -920.60139     -1480.1435      4362.8924    
     78530   616.9631      -921.21213     -2525.7639      4367.4478    
     78540   611.46949     -920.76591     -3603.8864      4371.2074    
     78550   564.34548     -919.21163     -4419.679       4373.8326    
     78560   590.37316     -919.72047     -4899.0775      4375.0628    
     78570   606.69864     -919.9763      -4869.0113      4374.7475    
     78580   549.05381     -918.21115     -4330.3975      4372.8971    
     78590   567.49888     -918.577       -3672.3228      4369.6732    
     78600   606.31541     -919.50417     -2672.7989      4365.2957    
     78610   591.64413     -918.95594     -1101.8583      4360.0946    
     78620   621.98058     -919.67109      311.89284      4354.5474    
     78630   641.53166     -920.09949      1684.1446      4349.1092    
     78640   606.50176     -919.03419      2994.3439      4344.2133    
     78650   636.79316     -919.80268      3656.8951      4340.2504    
     78660   633.37467     -919.65437      4324.2855      4337.4475    
     78670   585.79608     -918.29725      4916.5951      4336.0074    
     78680   646.86268     -919.97042      4675.205       4336.092     
     78690   672.7402      -920.69257      4099.6198      4337.643     
     78700   591.14816     -918.46015      3646.835       4340.4968    
     78710   603.90639     -918.85582      2468.4914      4344.4861    
     78720   632.86571     -919.70584      1107.5885      4349.2635    
     78730   573.33091     -918.09843     -67.580834      4354.4147    
     78740   590.16747     -918.60539     -1554.9883      4359.5485    
     78750   588.14573     -918.57892     -2600.9398      4364.2173    
     78760   555.19021     -917.67877     -3052.3049      4368.0922    
     78770   631.34266     -919.80311     -3768.039       4370.9948    
     78780   649.62227     -920.33542     -4085.3595      4372.7168    
     78790   580.26875     -918.4537      -3640.878       4373.1662    
     78800   634.46174     -920.01555     -3436.0685      4372.4512    
     78810   680.39168     -921.38282     -3238.4406      4370.6446    
     78820   601.69869     -919.32714     -2500.4928      4367.8278    
     78830   599.29262     -919.4055      -1894.7265      4364.2139    
     78840   621.24241     -920.18403     -1249.6894      4360.0016    
     78850   561.99519     -918.71307     -174.93496      4355.4101    
     78860   578.06618     -919.32783      726.20816      4350.7606    
     78870   603.12953     -920.2038       1660.4191      4346.3457    
     78880   561.02922     -919.21206      2632.8823      4342.4597    
     78890   578.63268     -919.87202      3202.3174      4339.3923    
     78900   597.15698     -920.56686      3627.8601      4337.3316    
     78910   539.31787     -919.13153      3928.0805      4336.4102    
     78920   559.27715     -919.834        3932.8825      4336.7183    
     78930   624.96819     -921.81661      3577.945       4338.2581    
     78940   576.93872     -920.64588      3253.0278      4340.9367    
     78950   575.07276     -920.74976      2435.9149      4344.6389    
     78960   590.38721     -921.32677      1113.9438      4349.1119    
     78970   539.78768     -920.05337     -163.0708       4353.9607    
     78980   541.29041     -920.19618     -1584.2476      4358.7736    
     78990   558.70104     -920.75562     -2608.6394      4363.116     
     79000   549.96075     -920.56425     -3117.2019      4366.6628    
     79010   593.9895      -921.8265      -3635.832       4369.2303    
     79020   596.37785     -921.93063     -3897.8031      4370.6596    
     79030   555.71848     -920.83779     -3985.2332      4370.8585    
     79040   549.21036     -920.68061     -3819.0568      4369.7985    
     79050   542.69804     -920.50055     -3394.7974      4367.5293    
     79060   521.66805     -919.88385     -2738.2019      4364.1861    
     79070   545.35212     -920.46369     -1966.9324      4359.9722    
     79080   558.54177     -920.69023     -769.1002       4355.1435    
     79090   552.88603     -920.32758      656.22398      4350.0742    
     79100   579.08848     -920.77334      1801.0856      4345.2008    
     79110   586.62342     -920.62512      2774.543       4340.8871    
     79120   578.58985     -920.00738      3849.5954      4337.4482    
     79130   605.65862     -920.35387      4570.8973      4335.2061    
     79140   632.88637     -920.72349      4874.4413      4334.3886    
     79150   606.2122      -919.66374      4864.5905      4335.0991    
     79160   590.71531     -918.99034      4201.3607      4337.3289    
     79170   606.57366     -919.23094      3137.8711      4340.8844    
     79180   605.01164     -919.02202      2168.3057      4345.4553    
     79190   626.7999      -919.4915       904.56539      4350.7289    
     79200   626.91493     -919.3839      -303.76282      4356.323     
     79210   606.56756     -918.73078     -1379.6894      4361.8567    
     79220   638.0699      -919.53256     -2633.6913      4366.9779    
     79230   651.64925     -919.85696     -3865.772       4371.2893    
     79240   585.44946     -917.9895      -4512.2826      4374.408     
     79250   559.64592     -917.24661     -4912.9476      4376.1074    
     79260   604.22721     -918.44979     -5226.4164      4376.2469    
     79270   604.99301     -918.43477     -4689.4373      4374.7451    
     79280   596.85603     -918.17888     -3536.8189      4371.7595    
     79290   637.75469     -919.28682     -2274.6713      4367.6422    
     79300   685.68742     -920.60921     -977.18299      4362.7944    
     79310   670.28535     -920.21414      166.82214      4357.623     
     79320   649.45442     -919.71009      1062.4025      4352.4891    
     79330   627.85941     -919.21289      1909.0008      4347.6807    
     79340   601.11765     -918.58488      2807.0738      4343.4692    
     79350   597.60713     -918.60534      3348.6363      4340.1237    
     79360   611.78269     -919.12699      3578.8482      4337.8178    
     79370   587.188       -918.57628      3972.5298      4336.641     
     79380   603.09326     -919.15433      4210.3496      4336.7097    
     79390   633.49412     -920.15283      3792.0999      4338.0927    
     79400   596.45296     -919.2962       3014.2574      4340.6751    
     79410   545.84475     -918.04604      1972.7106      4344.2205    
     79420   584.94699     -919.2701       865.01358      4348.4141    
     79430   594.8116      -919.67574      188.24628      4352.9255    
     79440   593.40561     -919.76212     -318.81234      4357.5358    
     79450   639.02652     -921.16418     -1235.0419      4362.0652    
     79460   643.96803     -921.46014     -2181.8679      4366.2369    
     79470   609.82333     -920.68918     -3186.9136      4369.7427    
     79480   576.51884     -919.93798     -4210.0627      4372.2561    
     79490   550.2874      -919.36345     -4797.2819      4373.4556    
     79500   551.89708     -919.53713     -4887.8553      4373.1466    
     79510   576.29292     -920.3289      -4587.3782      4371.2865    
     79520   560.00971     -919.97527     -3553.9828      4367.9762    
     79530   552.26936     -919.83523     -2274.608       4363.5263    
     79540   583.17852     -920.74729     -1136.9034      4358.3314    
     79550   583.81643     -920.80415      85.489104      4352.7585    
     79560   561.41081     -920.20377      1427.6319      4347.1957    
     79570   580.77116     -920.74622      2687.8548      4342.0598    
     79580   586.00839     -920.88011      3886.1726      4337.752     
     79590   588.03032     -920.91832      4506.1064      4334.6334    
     79600   585.8387      -920.83475      4606.7575      4332.9068    
     79610   561.08906     -920.11744      4549.0607      4332.6193    
     79620   531.91338     -919.256        4398.265       4333.7642    
     79630   567.82831     -920.16575      3767.2211      4336.2921    
     79640   593.63611     -920.7444       3063.8304      4340.031     
     79650   588.33754     -920.4136       2132.1385      4344.7652    
     79660   612.63194     -920.84935      1018.3414      4350.2135    
     79670   610.15084     -920.4779      -92.903022      4356.0365    
     79680   579.82209     -919.29056     -1442.0879      4361.8786    
     79690   595.32369     -919.33466     -2941.9259      4367.3104    
     79700   587.44402     -918.70379     -3935.6498      4371.8672    
     79710   590.65194     -918.4054      -4387.0958      4375.2214    
     79720   652.32625     -919.76478     -4677.5665      4377.2038    
     79730   655.23764     -919.55769     -4640.2781      4377.7167    
     79740   628.83461     -918.62944     -4400.1638      4376.7554    
     79750   638.69711     -918.77101     -4006.5006      4374.3859    
     79760   632.62243     -918.51312     -3329.8838      4370.7302    
     79770   611.20954     -917.86116     -2565.4122      4365.9915    
     79780   624.67006     -918.19669     -1571.3525      4360.4138    
     79790   596.01625     -917.37052     -31.387806      4354.3177    
     79800   587.15035     -917.08815      1907.2132      4348.1908    
     79810   696.71702     -920.09936      3344.5353      4342.6167    
     79820   695.32032     -920.07079      4634.7473      4338.0643    
     79830   628.0088      -918.26         5517.5365      4334.9375    
     79840   659.10701     -919.2158       5374.507       4333.4998    
     79850   652.24076     -919.15561      5097.5936      4333.7484    
     79860   591.34186     -917.61164      4668.0911      4335.6079    
     79870   615.08891     -918.42155      3743.1355      4338.9479    
     79880   645.26018     -919.42757      2517.8858      4343.5011    
     79890   602.93568     -918.42882      1238.6879      4348.9046    
     79900   598.17192     -918.46571     -100.65924      4354.759     
     79910   618.4662      -919.196       -1165.3585      4360.6572    
     79920   607.96758     -919.06961     -2189.2081      4366.2541    
     79930   619.30579     -919.54875     -3539.1927      4371.205     
     79940   619.34224     -919.71993     -4585.8185      4375.0874    
     79950   595.56026     -919.22479     -4868.2854      4377.5659    
     79960   634.5869      -920.47911     -5100.7054      4378.5097    
     79970   635.48432     -920.69413     -5228.5001      4377.8329    
     79980   564.59386     -918.90791     -4983.0024      4375.4856    
     79990   548.2013      -918.60134     -4221.4845      4371.5369    
     80000   574.17372     -919.4429      -2941.0318      4366.2182    
     80010   566.99977     -919.33539     -1198.8573      4359.9312    
     80020   584.4215      -919.88486      399.59337      4353.2054    
     80030   616.16289     -920.81866      1902.1085      4346.5504    
     80040   614.64182     -920.82519      3506.1674      4340.4493    
     80050   618.15576     -920.97645      4746.611       4335.3953    
     80060   594.47509     -920.37721      5425.8739      4331.7795    
     80070   555.68464     -919.35051      5701.6339      4329.8323    
     80080   576.81636     -919.97463      5560.8702      4329.6518    
     80090   607.76001     -920.8672       5255.9327      4331.222     
     80100   572.31386     -919.91601      4688.5475      4334.4665    
     80110   559.06976     -919.56987      3525.937       4339.22      
     80120   592.77277     -920.51114      1883.9055      4345.1408    
     80130   562.25486     -919.64872      379.96814      4351.7475    
     80140   569.27219     -919.80916     -1212.3084      4358.5645    
     80150   602.59069     -920.67797     -2678.87        4365.0942    
     80160   566.96345     -919.61758     -3820.9879      4370.8675    
     80170   570.04846     -919.61944     -4936.7729      4375.4958    
     80180   601.92171     -920.40129     -5857.3592      4378.6056    
     80190   565.55631     -919.27666     -6080.3433      4379.8941    
     80200   566.05269     -919.16342     -5589.3966      4379.2657    
     80210   630.10204     -920.78273     -4868.7968      4376.841     
     80220   622.24631     -920.38064     -3733.9725      4372.8393    
     80230   624.52421     -920.25185     -2255.892       4367.608     
     80240   671.54875     -921.34103     -1001.4592      4361.5922    
     80250   615.46338     -919.55638      250.26535      4355.1955    
     80260   559.03654     -917.76039      1303.8857      4348.8043    
     80270   596.24274     -918.51636      2287.1466      4342.755     
     80280   598.72241     -918.24448      3662.5597      4337.3743    
     80290   575.25527     -917.23134      5221.7947      4333.0997    
     80300   631.07183     -918.40332      5849.4908      4330.3933    
     80310   653.02627     -918.64177      6300.0033      4329.5024    
     80320   627.31309     -917.63289      6432.052       4330.5844    
     80330   693.60625     -919.25482      5684.7616      4333.6905    
     80340   705.24876     -919.43713      4451.3901      4338.6336    
     80350   634.09369     -917.4042       3108.4386      4345.0706    
     80360   645.34749     -917.70081      1284.4401      4352.5916    
     80370   671.40764     -918.42923     -630.39517      4360.6476    
     80380   652.6664      -917.9385      -2212.6135      4368.6493    
     80390   662.26729     -918.25527     -3836.2846      4376.0751    
     80400   693.26811     -919.19745     -5631.4241      4382.3837    
     80410   652.02426     -918.16709     -6833.8013      4386.9966    
     80420   619.72118     -917.4004      -7383.4076      4389.4926    
     80430   630.2591      -917.83574     -7471.5212      4389.6514    
     80440   609.41365     -917.40807     -6844.0533      4387.42      
     80450   606.23497     -917.47015     -5839.9192      4382.9592    
     80460   641.1887      -918.59615     -4515.7237      4376.5651    
     80470   655.83584     -919.17525     -2728.2646      4368.6481    
     80480   619.6288      -918.34497     -499.42802      4359.7713    
     80490   625.55996     -918.67202      1549.8185      4350.619     
     80500   666.09598     -919.96864      3334.82        4341.8396    
     80510   625.68684     -919.0245       5185.4373      4334.0122    
     80520   608.58608     -918.71724      6635.9443      4327.7115    
     80530   631.58507     -919.52668      7615.0146      4323.4073    
     80540   604.58989     -918.95068      8193.5688      4321.4317    
     80550   610.28864     -919.2807       7781.3501      4321.9785    
     80560   631.57872     -920.05537      6779.1784      4324.971     
     80570   578.19841     -918.74951      5799.0295      4330.1561    
     80580   591.85349     -919.28137      4208.8113      4337.2491    
     80590   659.83367     -921.32228      2033.6563      4345.788     
     80600   593.87069     -919.6368       153.53003      4355.1428    
     80610   573.31436     -919.1791      -2161.993       4364.702     
     80620   622.34281     -920.63371     -4534.3313      4373.7394    
     80630   564.64076     -919.10457     -6289.4452      4381.4962    
     80640   533.97553     -918.29822     -7719.8688      4387.3631    
     80650   580.622       -919.61971     -8670.2387      4390.8445    
     80660   576.34828     -919.52311     -8604.0165      4391.6035    
     80670   571.88294     -919.42008     -7753.377       4389.612     
     80680   629.30517     -921.04236     -6758.5941      4385.0861    
     80690   600.11715     -920.26597     -5113.7404      4378.3375    
     80700   592.43033     -920.08882     -3272.7215      4369.8563    
     80710   610.57943     -920.61864     -1092.4812      4360.2269    
     80720   590.87059     -920.08513      1307.2769      4350.1317    
     80730   575.59405     -919.65254      3700.3004      4340.3293    
     80740   636.32457     -921.32136      5461.0165      4331.5566    
     80750   602.53087     -920.36858      7124.7388      4324.3989    
     80760   564.49416     -919.30497      8036.6299      4319.3671    
     80770   578.38094     -919.68272      8236.4648      4316.77      
     80780   553.41548     -918.97554      8250.5485      4316.7197    
     80790   557.93736     -919.07828      7530.9952      4319.2383    
     80800   589.93674     -919.92604      6451.2808      4324.1585    
     80810   577.55792     -919.52146      5194.6083      4331.1944    
     80820   586.78515     -919.69205      3393.8078      4339.9823    
     80830   618.72951     -920.45279      1250.1137      4349.9959    
     80840   597.3001      -919.69204     -857.13408      4360.5903    
     80850   602.78672     -919.64113     -3163.36        4371.0909    
     80860   657.96063     -920.91798     -5459.246       4380.756     
     80870   632.52387     -919.93182     -7167.3285      4388.8399    
     80880   605.66638     -918.91628     -8512.3558      4394.7434    
     80890   622.33956     -919.10618     -9398.3748      4397.9907    
     80900   621.77341     -918.82209     -9461.3834      4398.2609    
     80910   615.64495     -918.40693     -8905.4841      4395.4829    
     80920   631.86083     -918.63456     -7834.3536      4389.7969    
     80930   599.979       -917.54922     -5987.2592      4381.53      
     80940   589.37693     -917.07216     -3547.5929      4371.254     
     80950   637.71817     -918.22161     -771.10737      4359.7367    
     80960   645.7177      -918.24892      2122.6912      4347.8542    
     80970   653.69744     -918.29743      4965.9497      4336.5241    
     80980   669.42777     -918.58969      7404.3929      4326.6369    
     80990   666.58661     -918.41048      9356.1908      4318.9651    
     81000   673.36902     -918.55363      10410.426      4314.1208    
     81010   687.7235      -918.97501      10494.922      4312.4508    
     81020   652.43383     -918.08148      10270.079      4314.0407    
     81030   635.04831     -917.7299       9232.1148      4318.8497    
     81040   644.19357     -918.14445      7229.0937      4326.603     
     81050   621.1469      -917.67415      4647.4209      4336.7393    
     81060   620.46427     -917.81515      1706.8363      4348.4939    
     81070   631.6119      -918.26928     -1138.308       4360.9744    
     81080   638.11718     -918.58157     -3678.4866      4373.286     
     81090   669.72021     -919.59513     -6151.0912      4384.5938    
     81100   656.21051     -919.37329     -8373.9266      4394.0787    
     81110   604.32265     -918.08229     -9895.9473      4400.9949    
     81120   628.02483     -918.89189     -10892.964      4404.7935    
     81130   616.30521     -918.73118     -10973.172      4405.1213    
     81140   572.99403     -917.68512     -10201.997      4401.9109    
     81150   619.70067     -919.13449     -8870.2977      4395.3756    
     81160   627.78971     -919.51146     -6769.2392      4385.9384    
     81170   603.16246     -918.96393     -4087.7185      4374.2657    
     81180   633.31769     -919.91479     -1216.9476      4361.2086    
     81190   624.85078     -919.77169      1901           4347.6932    
     81200   573.41211     -918.3985       4788.9121      4334.6989    
     81210   599.17385     -919.13785      7144.9699      4323.1288    
     81220   605.80518     -919.33285      9453.1834      4313.7342    
     81230   575.05637     -918.48308      11492.812      4307.23      
     81240   652.88003     -920.66858      12231.996      4304.2229    
     81250   666.615       -921.12859      12061.767      4304.9744    
     81260   566.40847     -918.45991      11106.75       4309.4688    
     81270   609.6714      -919.78686      8793.4304      4317.4323    
     81280   625.25948     -920.34741      5908.8951      4328.2175    
     81290   560.1439      -918.6482       2972.931       4340.9756    
     81300   574.28306     -919.11094     -283.37731      4354.7947    
     81310   595.10463     -919.71931     -3304.2559      4368.6691    
     81320   574.64961     -919.14891     -5877.4743      4381.6281    
     81330   621.21048     -920.42436     -8392.8542      4392.8064    
     81340   624.14833     -920.49756     -10399.382      4401.372     
     81350   544.93205     -918.30137     -11373.79       4406.6561    
     81360   582.21955     -919.35154     -11824.392      4408.2906    
     81370   622.89059     -920.51393     -11297.674      4406.1235    
     81380   594.92729     -919.79857     -9862.3146      4400.3123    
     81390   586.05709     -919.62642     -7995.9743      4391.3076    
     81400   599.89028     -920.08177     -5677.4098      4379.7238    
     81410   574.00306     -919.41493     -2641.152       4366.3305    
     81420   576.13536     -919.48955      706.35002      4352.1032    
     81430   615.35793     -920.559        3850.8705      4338.1004    
     81440   598.29511     -920.04184      6778.1462      4325.3164    
     81450   594.28703     -919.88079      9226.1716      4314.6504    
     81460   583.63302     -919.53346      11094.087      4306.8472    
     81470   580.64894     -919.40882      12116.348      4302.4641    
     81480   581.94349     -919.41545      12252.686      4301.8065    
     81490   593.91179     -919.73261      11549.999      4304.9202    
     81500   592.33045     -919.67936      10172.549      4311.6118    
     81510   615.12925     -920.30226      7967.3157      4321.472     
     81520   617.31824     -920.33746      5126.4503      4333.8486    
     81530   610.02751     -920.08796      1841.1791      4347.8763    
     81540   610.03883     -920.00778     -1588.4997      4362.5358    
     81550   599.29586     -919.59348     -4881.9182      4376.7398    
     81560   575.60767     -918.78902     -7854.3924      4389.4216    
     81570   556.69069     -918.0909      -10219.532      4399.6101    
     81580   575.18432     -918.41225     -11744.882      4406.5266    
     81590   590.88209     -918.64816     -12276.772      4409.6646    
     81600   616.91259     -919.18155     -11693.343      4408.855     
     81610   668.57118     -920.4467      -10411.089      4404.2844    
     81620   667.80149     -920.29364     -8494.4401      4396.3883    
     81630   631.57568     -919.19864     -5925.2103      4385.8186    
     81640   639.54911     -919.3464      -3290.4811      4373.4129    
     81650   629.96458     -919.0053      -681.52422      4360.0405    
     81660   610.1729      -918.37667      1964.7779      4346.5496    
     81670   597.31894     -917.9266       4682.1652      4333.7813    
     81680   596.89136     -917.80529      7357.9475      4322.5765    
     81690   590.61343     -917.50995      9627.345       4313.7382    
     81700   634.90593     -918.62614      10914.147      4307.9228    
     81710   639.90343     -918.67887      11671.656      4305.5092    
     81720   617.74623     -918.02215      11815.698      4306.7022    
     81730   651.12716     -918.94886      10745.989      4311.5143    
     81740   664.41881     -919.35815      9010.058       4319.6252    
     81750   658.67791     -919.27909      6496.1102      4330.4902    
     81760   665.05708     -919.56774      3446.1539      4343.3382    
     81770   630.23682     -918.72709      158.55315      4357.22      
     81780   614.09465     -918.40008     -3139.52        4371.0971    
     81790   638.68568     -919.21055     -6182.8175      4383.9152    
     81800   602.8989      -918.35675     -8539.8025      4394.7029    
     81810   590.83198     -918.17192     -10300.835      4402.6919    
     81820   633.46968     -919.54314     -11525.047      4407.3165    
     81830   616.34542     -919.30621     -11738.747      4408.2164    
     81840   577.81371     -918.49832     -11250.871      4405.3433    
     81850   588.17532     -919.05949     -10170.507      4398.8979    
     81860   574.46346     -918.94727     -8030.3782      4389.2994    
     81870   559.30036     -918.75915     -5110.0247      4377.2847    
     81880   575.99301     -919.40672     -1891.1357      4363.825     
     81890   612.81657     -920.57106      1475.819       4349.9767    
     81900   629.72587     -921.15757      4480.8421      4336.7997    
     81910   618.35087     -920.94265      7189.2179      4325.2277    
     81920   602.62371     -920.597        9457.3039      4316.0631    
     81930   584.25429     -920.1686       10721.409      4309.9401    
     81940   596.401       -920.59207      10926.407      4307.1886    
     81950   576.39496     -920.12805      10559.873      4307.8274    
     81960   554.90335     -919.61893      9730.8917      4311.7006    
     81970   557.60448     -919.76778      8172.1363      4318.5075    
     81980   571.23778     -920.19941      5920.9431      4327.738     
     81990   574.95531     -920.33085      3357.5968      4338.6819    
     82000   555.12158     -919.77604      784.04147      4350.5322    
     82010   574.30276     -920.27054     -1779.5056      4362.4685    
     82020   596.17096     -920.81011     -4245.3353      4373.6766    
     82030   591.58118     -920.60248     -6547.7977      4383.3748    
     82040   574.96622     -920.05796     -8304.5031      4390.8518    
     82050   575.0727      -919.9807      -9393.8226      4395.5737    
     82060   567.01172     -919.68266     -9736.6457      4397.2349    
     82070   564.50301     -919.54678     -9411.6489      4395.776     
     82080   581.20759     -919.94933     -8325.1843      4391.3679    
     82090   571.14128     -919.60778     -6491.8998      4384.428     
     82100   593.48506     -920.16037     -4438.8965      4375.5893    
     82110   637.69609     -921.313       -2177.0287      4365.5577    
     82120   614.36227     -920.59276      392.88752      4355.0906    
     82130   595.76765     -920.00835      2491.0021      4344.9834    
     82140   602.34461     -920.11929      4299.5565      4335.8949    
     82150   565.33778     -919.01609      5988.9973      4328.3617    
     82160   545.17055     -918.37198      7433.7033      4322.8621    
     82170   609.46728     -920.06745      8159.9652      4319.771     
     82180   606.8702      -919.91467      8381.952       4319.258     
     82190   583.77001     -919.21684      8009.7647      4321.3294    
     82200   623.75321     -920.28678      6777.7424      4325.8021    
     82210   610.19173     -919.88274      5273.712       4332.2676    
     82220   566.80408     -918.65724      3490.2519      4340.2196    
     82230   585.6636      -919.14813      1282.515       4349.0702    
     82240   600.16218     -919.49923     -800.36343      4358.1268    
     82250   596.49291     -919.33844     -2255.4118      4366.7456    
     82260   649.80383     -920.76451     -3642.621       4374.4574    
     82270   661.03067     -921.04438     -5122.1672      4380.8352    
     82280   619.66409     -919.89388     -6396.0075      4385.447     
     82290   612.92698     -919.72641     -7316.7222      4387.928     
     82300   570.31851     -918.5692      -7392.6014      4388.054     
     82310   554.7118      -918.15499     -7078.1792      4385.8483    
     82320   599.46359     -919.40975     -6350.8756      4381.4791    
     82330   594.05659     -919.2676      -4806.2008      4375.255     
     82340   581.79264     -918.93038     -2919.7724      4367.7054    
     82350   599.99052     -919.42569     -862.61933      4359.4681    
     82360   612.12058     -919.7446       869.7029       4351.1956    
     82370   587.14875     -919.02716      2576.8895      4343.442     
     82380   613.92639     -919.7445       4258.3985      4336.7178    
     82390   616.4623      -919.79005      5884.2467      4331.5122    
     82400   605.79853     -919.48103      6833.2661      4328.2589    
     82410   626.53728     -920.05987      6976.996       4327.1886    
     82420   627.10599     -920.0999       6616.019       4328.292     
     82430   608.95105     -919.63644      5762.7209      4331.4003    
     82440   630.6004      -920.29232      4450.4503      4336.2012    
     82450   598.80865     -919.46776      3034.2037      4342.262     
     82460   580.26827     -919.00262      1250.3411      4349.1053    
     82470   590.89066     -919.3291      -587.23335      4356.1687    
     82480   587.97312     -919.26326     -2117.0117      4362.8838    
     82490   593.13246     -919.4112      -3441.8266      4368.7756    
     82500   584.96915     -919.18287     -4275.749       4373.4552    
     82510   557.45813     -918.40633     -4680.6962      4376.6854    
     82520   602.00363     -919.6219      -5058.9336      4378.3605    
     82530   644.98989     -920.79953     -4963.564       4378.4148    
     82540   613.15572     -919.92043     -4404.8988      4376.9197    
     82550   611.63314     -919.89768     -3979.3144      4374.0735    
     82560   641.31349     -920.75631     -3464.3302      4370.0518    
     82570   582.63979     -919.16877     -2232.6061      4365.07      
     82580   572.21659     -918.91239     -985.64595      4359.5176    
     82590   600.93478     -919.72828      215.92244      4353.7992    
     82600   584.24347     -919.27144      1575.8281      4348.3009    
     82610   587.73933     -919.36773      2560.0331      4343.4199    
     82620   586.19304     -919.31415      3556.148       4339.4598    
     82630   590.27947     -919.41032      4295.4606      4336.6949    
     82640   635.07748     -920.63917      4588.6389      4335.3199    
     82650   645.51497     -920.93575      4554.444       4335.397     
     82660   579.39121     -919.12453      4258.7598      4336.8865    
     82670   590.15663     -919.45206      3409.4346      4339.6583    
     82680   609.09775     -920.00302      2499.625       4343.4431    
     82690   580.36482     -919.22927      1696.4208      4347.9468    
     82700   589.91182     -919.5132       475.44615      4352.8929    
     82710   607.28802     -920.00928     -919.61501      4357.9006    
     82720   571.35398     -919.02058     -1891.5089      4362.5511    
     82730   587.70412     -919.4784      -2704.6266      4366.5347    
     82740   612.33355     -920.162       -3315.8496      4369.6099    
     82750   581.02564     -919.29375     -3731.4592      4371.5972    
     82760   607.33158     -920.02793     -4072.1167      4372.3783    
     82770   629.7045      -920.66293     -3949.3452      4371.8756    
     82780   565.35249     -918.89699     -3212.2951      4370.1561    
     82790   599.04527     -919.85399     -2628.9036      4367.4476    
     82800   631.34623     -920.77201     -2085.4074      4363.9555    
     82810   588.98326     -919.62767     -1179.0973      4359.8756    
     82820   562.87242     -918.92708     -37.916958      4355.5       
     82830   603.8387      -920.07908      821.55788      4351.1725    
     82840   585.5676      -919.57557      1671.8545      4347.1722    
     82850   594.22671     -919.81699      2260.392       4343.7482    
     82860   608.12013     -920.20154      2785.3647      4341.0818    
     82870   571.52094     -919.18243      3298.7952      4339.325     
     82880   575.84116     -919.29083      3682.0735      4338.6247    
     82890   622.17903     -920.5607       3600.0886      4339.0744    
     82900   596.12015     -919.82194      3390.4356      4340.6489    
     82910   605.48583     -920.07315      2696.0261      4343.258     
     82920   612.48185     -920.25999      1845.0249      4346.6898    
     82930   572.64594     -919.14567      1021.0274      4350.6764    
     82940   577.58268     -919.2629      -16.97692       4354.9492    
     82950   617.65429     -920.34334     -1163.0384      4359.1829    
     82960   596.00928     -919.70622     -1871.3307      4363.0339    
     82970   591.7647      -919.55266     -2565.3151      4366.2672    
     82980   613.73053     -920.12437     -3226.633       4368.6679    
     82990   581.22332     -919.18242     -3459.1989      4370.044     
     83000   583.2236      -919.19626     -3606.8847      4370.3182    
     83010   604.47016     -919.73551     -3421.8796      4369.4607    
     83020   606.44613     -919.73787     -2749.5962      4367.5427    
     83030   603.63554     -919.60776     -1913.9025      4364.7781    
     83040   624.17307     -920.12796     -1222.916       4361.4288    
     83050   615.38133     -919.83796     -471.61617      4357.7266    
     83060   606.38359     -919.54895      252.15035      4353.9075    
     83070   610.84181     -919.63566      828.57657      4350.1965    
     83080   588.50292     -918.9788       1460.3523      4346.7805    
     83090   555.33254     -918.01087      2128.4823      4343.8532    
     83100   595.38244     -919.05917      2616.007       4341.6109    
     83110   618.50068     -919.62169      3288.4642      4340.2167    
     83120   626.43783     -919.7682       3738.8549      4339.8605    
     83130   625.72679     -919.68659      3759.1057      4340.6739    
     83140   627.85149     -919.69826      3232.7421      4342.6538    
     83150   620.19073     -919.45014      2375.321       4345.6379    
     83160   622.61207     -919.49258      1431.8797      4349.3635    
     83170   614.0233      -919.23663      464.28817      4353.5343    
     83180   602.83611     -918.91194     -655.04687      4357.838     
     83190   619.53977     -919.36394     -1585.7223      4361.9326    
     83200   615.06456     -919.23329     -2195.4977      4365.5271    
     83210   618.58452     -919.33406     -2739.4388      4368.4212    
     83220   643.44741     -920.04537     -3292.4875      4370.4398    
     83230   608.423       -919.11593     -3671.0769      4371.4146    
     83240   563.84582     -917.92945     -3785.6268      4371.2318    
     83250   583.33183     -918.51657     -3802.4387      4369.8513    
     83260   609.59904     -919.29445     -3336.644       4367.2842    
     83270   563.42069     -918.05754     -2133.6773      4363.6946    
     83280   599.97385     -919.11269     -1166.7581      4359.4361    
     83290   640.04897     -920.26992     -39.035109      4354.835     
     83300   624.26292     -919.89267      1431.1343      4350.2565    
     83310   657.06753     -920.89669      2458.5567      4346.1363    
     83320   641.28972     -920.59286      3324.1712      4342.8084    
     83330   595.77227     -919.49194      3732.0528      4340.5283    
     83340   599.21272     -919.76496      3621.9521      4339.4184    
     83350   605.40457     -920.1369       3294.0011      4339.4487    
     83360   553.96911     -918.90517      2894.0894      4340.5183    
     83370   556.13194     -919.14536      2159.8014      4342.4905    
     83380   566.81811     -919.60625      1372.0663      4345.1433    
     83390   563.76986     -919.66994      824.66684      4348.2391    
     83400   565.37314     -919.84315      312.29704      4351.5989    
     83410   595.09692     -920.78778     -328.883        4355.0544    
     83420   590.98863     -920.78758     -742.60082      4358.4178    
     83430   596.5637      -921.05446     -1507.5396      4361.5386    
     83440   585.41724     -920.85458     -2491.3135      4364.1791    
     83450   547.51712     -919.89691     -3058.9924      4366.0437    
     83460   549.57534     -920.02621     -3374.8792      4366.9453    
     83470   578.75895     -920.89267     -3442.7588      4366.7847    
     83480   569.38023     -920.67602     -3021.8249      4365.5491    
     83490   567.88292     -920.66583     -2201.0582      4363.3716    
     83500   591.48698     -921.34085     -1358.0827      4360.503     
     83510   577.15628     -920.95236     -509.7147       4357.2141    
     83520   563.14834     -920.55901      141.62269      4353.7689    
     83530   586.83112     -921.19649      500.51049      4350.3703    
     83540   550.85123     -920.15748      1005.7686      4347.1452    
     83550   514.29324     -919.07453      1479.6915      4344.2438    
     83560   547.70183     -919.88523      2121.966       4341.8233    
     83570   583.99535     -920.71518      2859.7608      4340.0781    
     83580   582.9662      -920.46027      3438.8782      4339.2354    
     83590   617.40931     -921.15314      3467.4223      4339.4641    
     83600   603.31078     -920.46553      3333.2731      4340.7874    
     83610   583.63348     -919.62276      2700.9441      4343.1505    
     83620   603.6802      -919.87169      1758.1257      4346.3646    
     83630   613.70325     -919.84179      686.60999      4350.1379    
     83640   576.69761     -918.5337      -159.5592       4354.1471    
     83650   580.48721     -918.391       -988.74009      4358.1159    
     83660   612.71368     -919.05206     -1709.3944      4361.7843    
     83670   623.04569     -919.13746     -2152.7872      4364.9287    
     83680   649.64774     -919.71783     -2526.0901      4367.3987    
     83690   668.72951     -920.13848     -2747.5705      4369.0782    
     83700   638.16228     -919.23084     -2887.8934      4369.8927    
     83710   615.0977      -918.56519     -3051.9863      4369.7922    
     83720   620.07849     -918.69564     -3203.5297      4368.7249    
     83730   595.07407     -918.00172     -2964.34        4366.6536    
     83740   590.3063      -917.87202     -2431.4121      4363.6504    
     83750   594.16571     -917.97677     -1543.3072      4359.8908    
     83760   596.06947     -918.02119     -299.81831      4355.6563    
     83770   629.11804     -918.92876      980.56559      4351.3329    
     83780   651.73115     -919.56084      2155.559       4347.3209    
     83790   623.77823     -918.80742      3340.4736      4343.9954    
     83800   670.72128     -920.16042      3898.2147      4341.7095    
     83810   700.97925     -921.1018       3844.7183      4340.6387    
     83820   621.92091     -919.05306      3716.2859      4340.7823    
     83830   596.59739     -918.50524      3209.717       4342.0918    
     83840   636.46891     -919.77994      2119.7106      4344.4023    
     83850   598.30667     -918.89814      1302.4971      4347.4023    
     83860   552.06667     -917.77163      619.22156      4350.8301    
     83870   584.62962     -918.81355     -129.9211       4354.4659    
     83880   597.74232     -919.30487     -737.03385      4358.0807    
     83890   604.26219     -919.60912     -1396.0326      4361.4754    
     83900   625.0978      -920.31531     -2158.5376      4364.4391    
     83910   615.22347     -920.17923     -2830.2773      4366.7315    
     83920   580.18276     -919.33947     -3140.06        4368.1451    
     83930   587.90475     -919.6794      -3420.166       4368.565     
     83940   568.36523     -919.24835     -3241.1004      4367.9157    
     83950   580.40355     -919.67722     -2743.8893      4366.2457    
     83960   622.02266     -920.9272      -2211.1845      4363.7036    
     83970   583.64194     -919.9515      -1096.8138      4360.4779    
     83980   605.99997     -920.65711     -133.20321      4356.8987    
     83990   633.69613     -921.51681      398.93813      4353.266     
     84000   584.13272     -920.23683      821.0111       4349.7561    
     84010   538.89531     -919.05775      1248.0642      4346.506     
     84020   557.41669     -919.62429      1670.8511      4343.6473    
     84030   547.55865     -919.37438      2307.6148      4341.3216    
     84040   564.29663     -919.83994      2911.1709      4339.7216    
     84050   606.22967     -920.99094      3285.0564      4339.0319    
     84060   590.48629     -920.53747      3473.1872      4339.3753    
     84070   573.04134     -920.0336       3244.3159      4340.8092    
     84080   604.79148     -920.88778      2409.1993      4343.2584    
     84090   584.0149      -920.27291      1509.2416      4346.4846    
     84100   550.44489     -919.28794      500.72046      4350.2044    
     84110   584.51881     -920.14824     -610.96498      4354.1       
     84120   607.02911     -920.64335     -1285.0828      4357.8382    
     84130   595.80163     -920.1625      -1607.1591      4361.201     
     84140   589.1935      -919.75943     -2178.9887      4364.0631    
     84150   590.104       -919.49219     -2738.1382      4366.2514    
     84160   604.40563     -919.51788     -3097.479       4367.5859    
     84170   607.86759     -919.18372     -2987.3098      4367.9581    
     84180   611.77757     -918.84906     -2694.4979      4367.3875    
     84190   600.64117     -918.13019     -2232.4736      4365.9681    
     84200   650.99548     -919.17234     -1978.3742      4363.8303    
     84210   657.03431     -919.04636     -1419.0545      4361.0696    
     84220   638.70993     -918.33062     -321.06167      4357.8714    
     84230   664.48684     -918.89853      520.2875       4354.5576    
     84240   642.87684     -918.19921      1107.1616      4351.3984    
     84250   623.04304     -917.58787      1489.9449      4348.5771    
     84260   641.67058     -918.06776      1921.6429      4346.2229    
     84270   645.83888     -918.16952      2477.3822      4344.4776    
     84280   639.44745     -918.00557      2700.9721      4343.5022    
     84290   628.04399     -917.72543      2596.2926      4343.3721    
     84300   616.06625     -917.44419      2514.3851      4344.068     
     84310   639.73        -918.16694      2481.4767      4345.5693    
     84320   675.44876     -919.25505      2141.7914      4347.8603    
     84330   670.0846      -919.24746      1462.1679      4350.8395    
     84340   647.92441     -918.80875      595.05404      4354.3033    
     84350   660.42878     -919.36453     -377.86976      4357.9808    
     84360   645.49086     -919.18762     -1182.7739      4361.5728    
     84370   606.88386     -918.35734     -2058.0582      4364.8151    
     84380   589.96993     -918.1137      -3019.4246      4367.4249    
     84390   583.29826     -918.13114     -3539.0211      4369.1055    
     84400   604.46714     -918.90461     -3599.0109      4369.6827    
     84410   630.99732     -919.82762     -3332.2101      4369.1282    
     84420   611.57388     -919.47338     -2747.1517      4367.5211    
     84430   607.13588     -919.52418     -2069.0597      4365.0372    
     84440   626.57215     -920.23436     -1651.7869      4361.8778    
     84450   610.56635     -919.95654     -1091.0597      4358.1859    
     84460   578.48385     -919.21442     -191.52259      4354.144     
     84470   578.55302     -919.33786      672.76126      4350.0235    
     84480   582.91823     -919.56092      1584.2372      4346.099     
     84490   566.7372      -919.18734      2610.5652      4342.6636    
     84500   630.33536     -921.02071      3146.3868      4340.0236    
     84510   645.20668     -921.51672      3488.8843      4338.3613    
     84520   566.04666     -919.40729      3809.5764      4337.7949    
     84530   552.05466     -919.08886      3433.2457      4338.4099    
     84540   596.9842      -920.39026      2683.2356      4340.1079    
     84550   586.16307     -920.13541      2183.4321      4342.6804    
     84560   552.05907     -919.22141      1624.6031      4345.9664    
     84570   574.11938     -919.84697      809.50151      4349.7907    
     84580   609.53088     -920.82946     -59.64196       4353.9063    
     84590   595.89342     -920.44579     -732.22355      4358.0515    
     84600   595.94845     -920.44254     -1661.2785      4361.993     
     84610   585.73365     -920.14727     -2353.6294      4365.453     
     84620   584.64077     -920.09875     -3107.0958      4368.1928    
     84630   595.96741     -920.38769     -3893.0114      4369.9661    
     84640   580.06856     -919.91655     -4220.0724      4370.5263    
     84650   548.363       -918.9946      -3985.3082      4369.7633    
     84660   569.69109     -919.52412     -3606.11        4367.727     
     84670   571.73645     -919.48614     -2798.4592      4364.5425    
     84680   579.06893     -919.56513     -1729.6796      4360.4556    
     84690   609.93292     -920.25977     -507.75899      4355.7973    
     84700   613.6857      -920.16771      892.10588      4350.9536    
     84710   593.59905     -919.38852      2207.2302      4346.3624    
     84720   656.38364     -920.88029      3096.5086      4342.4299    
     84730   672.41683     -921.04868      3840.0549      4339.4492    
     84740   616.14619     -919.23585      4252.4341      4337.6556    
     84750   602.80164     -918.63146      4018.782       4337.1751    
     84760   599.22339     -918.29133      3645.9597      4337.9611    
     84770   591.89124     -917.84161      3073.862       4339.9044    
     84780   611.42682     -918.13454      2260.9057      4342.8364    
     84790   623.60494     -918.22361      1590.0616      4346.5236    
     84800   585.93581     -916.95156      1040.9373      4350.7611    
     84810   632.24015     -918.0296       215.88944      4355.3704    
     84820   698.81018     -919.68596     -754.33198      4360.0991    
     84830   686.70685     -919.21846     -1723.0544      4364.6432    
     84840   644.37572     -917.97642     -2612.0927      4368.6928    
     84850   645.92826     -917.99151     -3383.9604      4371.9576    
     84860   663.00115     -918.46772     -4017.8364      4374.1816    
     84870   665.59927     -918.57912     -4420.6844      4375.1508    
     84880   652.14951     -918.2806      -4288.472       4374.7334    
     84890   628.31466     -917.71373     -3759.7455      4372.9525    
     84900   637.95543     -918.08744     -3060.2909      4369.9605    
     84910   647.84196     -918.47955     -2167.0966      4365.9723    
     84920   646.1197      -918.56124     -1128.4595      4361.266     
     84930   639.07175     -918.5034      -71.386842      4356.1649    
     84940   611.97089     -917.88315      1084.4909      4351.0047    
     84950   606.25489     -917.84193      2000.5334      4346.1392    
     84960   628.58031     -918.56936      2943.8698      4341.8716    
     84970   640.09477     -919.00061      3794.4485      4338.4958    
     84980   618.2273      -918.50693      4669.644       4336.2942    
     84990   624.31151     -918.7892       5041.6665      4335.5363    
     85000   655.30276     -919.77412      4750.5167      4336.3487    
     85010   652.10621     -919.82979      4152.9933      4338.6669    
     85020   633.04085     -919.45547      3387.2338      4342.3292    
     85030   621.75629     -919.29797      2094.7064      4347.0974    
     85040   596.41071     -918.73329      593.92806      4352.5895    
     85050   606.07121     -919.12105     -981.03008      4358.3408    
     85060   622.70525     -919.69256     -2472.6557      4363.8576    
     85070   590.77068     -918.90626     -3541.0538      4368.6709    
     85080   566.93769     -918.32344     -4123.5677      4372.427     
     85090   617.48869     -919.79541     -4549.4903      4374.9135    
     85100   640.7021      -920.51787     -4812.5631      4375.9774    
     85110   599.66619     -919.46892     -4752.7372      4375.5208    
     85120   577.92053     -918.95216     -4282.2915      4373.5508    
     85130   588.68476     -919.3272      -3557.8725      4370.1967    
     85140   611.97327     -920.04338     -2657.2514      4365.6785    
     85150   620.35692     -920.35249     -1752.0894      4360.2672    
     85160   557.23563     -918.66725     -443.90871      4354.2587    
     85170   552.1862      -918.56933      1065.4417      4348.0575    
     85180   597.98416     -919.85813      2598.5275      4342.1364    
     85190   621.14387     -920.51135      4237.9802      4336.985     
     85200   624.13946     -920.61393      5447.7414      4333.1107    
     85210   629.99285     -920.81766      5846.2841      4330.8933    
     85220   591.26543     -919.79968      5873.1272      4330.4895    
     85230   583.19056     -919.63724      5258.4384      4331.9192    
     85240   615.46853     -920.60034      4128.7741      4335.0171    
     85250   581.80106     -919.73661      2884.574       4339.4641    
     85260   535.46088     -918.50551      1477.9402      4344.8835    
     85270   575.39526     -919.64718      216.087        4350.8543    
     85280   601.00157     -920.37298     -765.65724      4356.9911    
     85290   599.32386     -920.33822     -1995.8451      4362.9643    
     85300   584.18682     -919.92666     -3313.318       4368.3842    
     85310   570.6721      -919.55237     -4499.0498      4372.8219    
     85320   567.9349      -919.46493     -5227.5385      4375.8924    
     85330   580.91187     -919.80045     -5547.2584      4377.3371    
     85340   594.9803      -920.15479     -5334.0287      4377.0369    
     85350   590.14442     -919.97365     -4745.7287      4375.0323    
     85360   598.92363     -920.15765     -3787.9736      4371.4932    
     85370   606.94723     -920.30259     -2555.7571      4366.7113    
     85380   611.81799     -920.34285     -1285.0303      4361.0622    
     85390   626.25303     -920.63541      35.83206       4354.9458    
     85400   592.97633     -919.59123      1411.439       4348.7802    
     85410   587.27049     -919.30162      2518.9281      4342.9902    
     85420   602.98051     -919.58304      3535.8817      4337.9375    
     85430   599.80566     -919.32707      4363.4571      4333.9425    
     85440   558.25693     -917.99778      5008.27        4331.2785    
     85450   588.53532     -918.65207      5194.6617      4330.1515    
     85460   596.21824     -918.65642      5206.4506      4330.6472    
     85470   608.86989     -918.8019       5088.1782      4332.794     
     85480   656.18775     -919.91343      4539.5966      4336.5708    
     85490   658.04573     -919.78792      3499.0423      4341.828     
     85500   637.74995     -919.08525      2173.986       4348.2703    
     85510   670.96735     -919.89632      413.22261      4355.4911    
     85520   683.07451     -920.15139     -1530.9797      4362.9522    
     85530   606.80437     -917.98633     -3467.5838      4370.0401    
     85540   574.47482     -917.0505      -5184.0958      4376.1287    
     85550   584.81559     -917.28797     -6335.4195      4380.6536    
     85560   629.13176     -918.46791     -6586.7884      4383.2297    
     85570   644.64451     -918.86706     -6274.2871      4383.7331    
     85580   622.01191     -918.23479     -5520.775       4382.2371    
     85590   642.52052     -918.82498     -4709.3453      4378.9494    
     85600   672.26374     -919.70233     -3862.4718      4374.113     
     85610   656.46138     -919.35917     -2760.3632      4367.992     
     85620   600.40968     -917.92333     -1209.9619      4360.936     
     85630   587.61935     -917.68782      526.3253       4353.4249    
     85640   606.48461     -918.32842      2202.6189      4346.0008    
     85650   639.87116     -919.38424      3789.729       4339.1979    
     85660   666.37227     -920.29116      5084.071       4333.5147    
     85670   627.23233     -919.41669      6165.2848      4329.3705    
     85680   608.76555     -919.1406       6649.9501      4327.1076    
     85690   601.70656     -919.19715      6437.6845      4326.8968    
     85700   592.79565     -919.20515      5535.4339      4328.694     
     85710   600.87199     -919.6812       4492.0947      4332.2629    
     85720   582.90895     -919.41939      3367.0952      4337.3008    
     85730   555.37783     -918.85316      2320.8372      4343.4863    
     85740   575.87601     -919.58056      894.82622      4350.489     
     85750   621.24255     -920.9749      -754.5803       4357.8774    
     85760   633.5741      -921.4459      -2426.1857      4365.1346    
     85770   596.50654     -920.53244     -3784.4966      4371.7334    
     85780   579.87427     -920.16531     -5133.2716      4377.213     
     85790   564.66604     -919.81131     -6371.5366      4381.1225    
     85800   567.07359     -919.92654     -7186.003       4383.0462    
     85810   555.86598     -919.64868     -7237.3186      4382.7022    
     85820   536.823       -919.13584     -6370.8039      4380.0503    
     85830   558.68978     -919.73679     -4925.7972      4375.3378    
     85840   608.2799      -921.0918      -3437.2754      4368.9932    
     85850   590.08493     -920.55783     -1630.4132      4361.494     
     85860   567.93357     -919.90546      314.19843      4353.4053    
     85870   609.45201     -921.00592      2006.092       4345.3304    
     85880   616.60191     -921.14652      3697.2192      4337.8161    
     85890   568.99228     -919.76906      5053.4188      4331.3878    
     85900   567.21415     -919.65896      5999.8397      4326.4784    
     85910   594.16279     -920.33844      6628.4136      4323.3965    
     85920   577.36191     -919.80357      7131.9465      4322.3644    
     85930   582.3693      -919.87932      6940.8531      4323.5425    
     85940   596.43803     -920.20914      6085.95        4326.9032    
     85950   558.03981     -919.08017      4931.6217      4332.222     
     85960   581.46804     -919.65963      3311.9814      4339.1599    
     85970   625.43718     -920.79102      1529.2313      4347.2426    
     85980   607.55215     -920.20351     -304.28885      4355.9239    
     85990   587.03404     -919.54368     -2390.2067      4364.6249    
     86000   590.43304     -919.53704     -4523.7148      4372.6787    
     86010   574.96524     -918.99471     -5897.2872      4379.4082    
     86020   595.8588      -919.45833     -6692.0968      4384.3436    
     86030   640.78329     -920.59293     -7263.7462      4387.1883    
     86040   598.73629     -919.33453     -7294.1617      4387.7409    
     86050   580.27027     -918.75158     -6986.0164      4385.9588    
     86060   617.21821     -919.71078     -6238.5165      4381.922     
     86070   605.41953     -919.32062     -4995.5058      4375.8565    
     86080   593.74077     -918.93961     -3481.0338      4368.1418    
     86090   592.66223     -918.84434     -1634.9804      4359.259     
     86100   574.55021     -918.25681      766.35729      4349.8011    
     86110   608.9482      -919.10063      3437.0054      4340.5244    
     86120   670.90506     -920.69387      5560.9397      4332.2461    
     86130   644.66497     -919.85636      7396.3273      4325.6486    
     86140   623.46897     -919.19054      8510.5293      4321.3014    
     86150   653.08797     -919.9632       8474.2871      4319.5528    
     86160   620.37812     -919.03547      7806.0602      4320.432     
     86170   574.09687     -917.74965      6604.8309      4323.7577    
     86180   593.87103     -918.29307      5048.4824      4329.1874    
     86190   594.62229     -918.28743      3600.9775      4336.2764    
     86200   588.28222     -918.05903      2167.9         4344.5904    
     86210   639.74945     -919.40049      330.46998      4353.6811    
     86220   663.35601     -919.93948     -1590.8119      4362.9855    
     86230   631.62353     -918.94002     -3455.7668      4371.8928    
     86240   632.4454      -918.84716     -5363.5338      4379.7934    
     86250   637.50461     -918.87398     -7074.3311      4386.0591    
     86260   618.04023     -918.23567     -7989.5305      4390.1329    
     86270   613.17019     -918.02156     -8111.6253      4391.6924    
     86280   639.36965     -918.68751     -7693.5887      4390.6634    
     86290   672.26249     -919.56847     -6770.3863      4387.161     
     86300   654.51968     -919.08435     -5469.1307      4381.4651    
     86310   632.80406     -918.52508     -3958.1851      4373.9825    
     86320   610.04319     -917.95021     -2229.684       4365.1937    
     86330   608.11405     -917.95298     -155.05946      4355.6538    
     86340   626.32791     -918.51118      2142.9051      4346.0249    
     86350   629.65953     -918.6632       4164.3194      4337.0143    
     86360   603.52807     -918.0035       6057.9275      4329.268     
     86370   611.25622     -918.29266      7360.0802      4323.3667    
     86380   631.95448     -918.9626       8232.683       4319.7285    
     86390   634.56474     -919.16437      8725.2669      4318.6353    
     86400   630.3281      -919.21236      8493.838       4320.2473    
     86410   639.73704     -919.67655      7586.1831      4324.5194    
     86420   635.1635      -919.78137      6109.1479      4331.1973    
     86430   662.22162     -920.7929       4067.2673      4339.8502    
     86440   643.86728     -920.56617      1440.9946      4349.8579    
     86450   574.61277     -918.89486     -1452.3903      4360.4141    
     86460   566.4787      -918.86786     -4249.4877      4370.6088    
     86470   561.53714     -918.88595     -6279.3137      4379.5571    
     86480   532.50719     -918.19253     -7559.685       4386.5844    
     86490   568.2256      -919.26733     -8524.8399      4391.2386    
     86500   621.13421     -920.82358     -8952.4088      4393.1916    
     86510   589.48716     -920.04279     -8434.9098      4392.2982    
     86520   594.94049     -920.29977     -7464.8739      4388.6936    
     86530   621.1288      -921.14044     -6253.8285      4382.6787    
     86540   595.74251     -920.55611     -4737.9084      4374.6419    
     86550   546.76864     -919.29754     -2741.1751      4365.0787    
     86560   555.29009     -919.60081     -462.58861      4354.6227    
     86570   572.4416      -920.10453      2061.7801      4344.0035    
     86580   589.18991     -920.56952      4488.2818      4334.0108    
     86590   580.04122     -920.29683      6611.6138      4325.4       
     86600   581.57164     -920.31079      8253.2829      4318.8252    
     86610   611.77224     -921.12323      9305.3531      4314.7947    
     86620   597.69192     -920.72256      9521.0254      4313.6308    
     86630   556.75898     -919.58804      8889.648       4315.4102    
     86640   574.37539     -920.07757      7504.5619      4319.9542    
     86650   571.42889     -919.98005      5942.1786      4326.8715    
     86660   571.676       -919.95183      4080.3548      4335.6917    
     86670   600.76556     -920.69523      1774.7037      4345.8461    
     86680   580.36548     -920.0327      -655.41908      4356.6279    
     86690   555.90025     -919.22444     -2935.4588      4367.2766    
     86700   605.32927     -920.4245      -5188.5011      4377.0526    
     86710   593.37849     -919.88161     -6982.7218      4385.233     
     86720   555.75315     -918.6155      -8229.5762      4391.2248    
     86730   626.59945     -920.3379      -9119.1334      4394.5993    
     86740   627.43063     -920.09881     -8978.3757      4395.078     
     86750   579.65165     -918.54029     -8067.7242      4392.6879    
     86760   632.83755     -919.79402     -6968.9864      4387.7008    
     86770   634.21162     -919.60822     -5308.8388      4380.4871    
     86780   584.11489     -918.02138     -3112.7926      4371.5873    
     86790   636.23229     -919.27981     -1057.8392      4361.6888    
     86800   656.34479     -919.64696      1332.1597      4351.4715    
     86810   631.30681     -918.7901       3653.4241      4341.6818    
     86820   649.12316     -919.1528       5185.4077      4333.0289    
     86830   606.70605     -917.86944      6407.0736      4326.0016    
     86840   588.52481     -917.27964      7567.0667      4320.9825    
     86850   655.98101     -919.0857       8070.1658      4318.3079    
     86860   609.17477     -917.74922      8158.5908      4318.1376    
     86870   560.13289     -916.37296      7864.0612      4320.5056    
     86880   661.06796     -919.17116      6992.2039      4325.3247    
     86890   676.60007     -919.62635      5920.5678      4332.3477    
     86900   635.37495     -918.54281      4399.861       4341.2512    
     86910   700.67618     -920.44585      1734.9269      4351.5454    
     86920   690.56617     -920.28839     -1027.5635      4362.4309    
     86930   615.05881     -918.32312     -3563.676       4373.0393    
     86940   618.95665     -918.54819     -6081.5132      4382.5452    
     86950   614.91744     -918.54491     -8028.2188      4390.1419    
     86960   570.37037     -917.4021      -9118.4         4395.1977    
     86970   590.01364     -918.03336     -9700.4231      4397.3345    
     86980   604.70305     -918.52849     -9298.9399      4396.3764    
     86990   613.34771     -918.86294     -8116.5589      4392.4466    
     87000   632.56801     -919.50085     -6583.2543      4385.923     
     87010   626.81485     -919.45059     -4805.2901      4377.3107    
     87020   605.99166     -918.97456     -2635.7286      4367.1977    
     87030   602.88707     -918.96788     -128.63091      4356.2884    
     87040   617.55818     -919.4319       2522.0731      4345.3812    
     87050   625.92209     -919.70415      5033.8396      4335.3062    
     87060   644.66244     -920.26742      6868.5105      4326.8278    
     87070   619.79101     -919.63038      8315.7275      4320.5167    
     87080   600.82327     -919.16493      9266.7224      4316.8034    
     87090   610.94975     -919.51791      9284.3265      4315.9579    
     87100   597.82338     -919.2359       8643.9786      4317.9895    
     87110   592.9326      -919.1864       7396.2865      4322.6989    
     87120   610.45796     -919.75933      5643.1884      4329.7092    
     87130   605.70564     -919.70979      3560.4239      4338.4864    
     87140   578.61371     -919.02523      1320.3538      4348.3908    
     87150   565.49333     -918.69875     -956.06608      4358.7226    
     87160   607.42361     -919.87497     -3282.6178      4368.7553    
     87170   613.08792     -920.03327     -5117.9136      4377.7604    
     87180   584.25971     -919.23161     -6372.4878      4385.1451    
     87190   616.6286      -920.13249     -7457.1313      4390.4865    
     87200   639.5845      -920.78966     -8261.3349      4393.4333    
     87210   603.99666     -919.84908     -8510.6928      4393.7373    
     87220   588.11213     -919.47248     -8298.048       4391.3209    
     87230   597.80195     -919.81771     -7427.273       4386.2699    
     87240   549.24532     -918.5398      -5692.8281      4378.8895    
     87250   548.14007     -918.55431     -3547.4857      4369.7412    
     87260   602.47203     -920.07761     -1269.6622      4359.5211    
     87270   609.12715     -920.25493      1315.3569      4348.9713    
     87280   610.14417     -920.26469      3959.2104      4338.9063    
     87290   622.98191     -920.59977      6077.8193      4330.1332    
     87300   605.01262     -920.08869      7516.5479      4323.2966    
     87310   582.23637     -919.4549       8252.804       4318.8245    
     87320   595.54896     -919.836        8401.9         4316.9266    
     87330   563.65992     -918.96739      8426.2651      4317.6506    
     87340   573.04315     -919.24702      7601.8986      4320.97      
     87350   601.57517     -920.05064      6213.8844      4326.6378    
     87360   602.11829     -920.07195      4663.7916      4334.2327    
     87370   605.78687     -920.17232      2837.439       4343.2695    
     87380   624.74914     -920.68891      547.37098      4353.1695    
     87390   586.89914     -919.61502     -1728.7648      4363.2249    
     87400   574.72944     -919.23699     -4039.5625      4372.7063    
     87410   583.34271     -919.41038     -6005.7391      4380.885     
     87420   569.98333     -918.95389     -7385.7883      4387.1319    
     87430   610.33605     -919.97817     -8127.3847      4391.0063    
     87440   642.55719     -920.77917     -8203.0132      4392.2767    
     87450   600.82778     -919.54913     -7908.2886      4390.9216    
     87460   580.9148      -918.93885     -7193.902       4387.057     
     87470   622.8908      -920.04475     -6007.9468      4380.9331    
     87480   594.63268     -919.19448     -4160.7367      4372.9629    
     87490   577.79924     -918.65509     -2190.2965      4363.7383    
     87500   591.33848     -918.93158      133.54425      4353.9143    
     87510   615.40378     -919.47438      2516.0601      4344.2261    
     87520   596.606       -918.81101      4608.8514      4335.4113    
     87530   611.51509     -919.07957      6371.5661      4328.1104    
     87540   638.92898     -919.69456      7768.8199      4322.8537    
     87550   636.61575     -919.50618      8428.6273      4320.0416    
     87560   633.18837     -919.32036      8450.1208      4319.8561    
     87570   630.38777     -919.18171      7985.1427      4322.2895    
     87580   656.39327     -919.8724       6722.9136      4327.173     
     87590   631.78134     -919.18588      5086.4995      4334.1193    
     87600   574.41596     -917.6004       2951.4785      4342.6072    
     87610   590.53648     -918.03891      497.75622      4351.9682    
     87620   628.98057     -919.07797     -1745.8339      4361.4386    
     87630   606.79084     -918.42872     -3363.6772      4370.3203    
     87640   605.66188     -918.36561     -4904.3625      4378.0785    
     87650   645.11816     -919.4354      -6386.7499      4384.2203    
     87660   637.66265     -919.22698     -7107.0396      4388.3001    
     87670   627.77276     -918.98402     -7303.354       4390.0908    
     87680   652.33431     -919.73611     -7220.9498      4389.5401    
     87690   635.9596      -919.39522     -6616.3269      4386.7059    
     87700   598.52248     -918.49949     -5659.868       4381.804     
     87710   603.32129     -918.79145     -4479.8276      4375.1641    
     87720   612.78663     -919.22881     -2718.3367      4367.2008    
     87730   587.14717     -918.69279     -663.34239      4358.4874    
     87740   602.43659     -919.29215      1188.9404      4349.6745    
     87750   613.63388     -919.7852       2826.1849      4341.3474    
     87760   597.69324     -919.53273      4337.1961      4334.0163    
     87770   576.36666     -919.12443      5683.287       4328.1337    
     87780   593.71159     -919.78942      6718.5824      4324.088     
     87790   585.82498     -919.75677      7350.3107      4322.1738    
     87800   576.31447     -919.67448      7192.1731      4322.546     
     87810   600.34825     -920.524        6682.6811      4325.1409    
     87820   603.46762     -920.79834      5968.8894      4329.7805    
     87830   584.51094     -920.45122      4731.7946      4336.218     
     87840   610.24727     -921.33537      2636.8467      4344.0402    
     87850   596.05325     -921.09586      289.63122      4352.5996    
     87860   561.28327     -920.2542      -1927.585       4361.1587    
     87870   548.03296     -919.97117     -3884.229       4369.0159    
     87880   538.07973     -919.74212     -5346.4024      4375.5615    
     87890   532.94221     -919.61256     -6425.4315      4380.3375    
     87900   560.19765     -920.35958     -7099.9998      4383.0166    
     87910   554.83791     -920.18546     -6881.6435      4383.4281    
     87920   550.9576      -920.03936     -6108.1898      4381.6654    
     87930   610.837       -921.65339     -5324.2719      4377.9947    
     87940   596.06273     -921.19073     -4133.9823      4372.7171    
     87950   562.10575     -920.1971      -2734.2181      4366.2351    
     87960   583.91151     -920.73651     -1178.7983      4359.0204    
     87970   591.08832     -920.85127      557.42536      4351.5825    
     87980   562.16103     -919.95045      2292.4588      4344.4688    
     87990   585.57065     -920.48865      3590.4676      4338.203     
     88000   612.36689     -921.11054      4582.695       4333.175     
     88010   557.91882     -919.48042      5467.2367      4329.6723    
     88020   554.25495     -919.26238      5907.4761      4327.9266    
     88030   595.20828     -920.27118      5908.5985      4328.0388    
     88040   578.7144      -919.6846       5371.1078      4329.9699    
     88050   579.42123     -919.58536      4354.3596      4333.5199    
     88060   592.39735     -919.82742      3218.3533      4338.3549    
     88070   593.36571     -919.74178      2123.539       4344.1038    
     88080   594.2638      -919.66381      839.00471      4350.4026    
     88090   615.14632     -920.15061     -681.58667      4356.8343    
     88100   620.05573     -920.21044     -1945.0219      4362.9337    
     88110   594.55005     -919.44484     -3042.1499      4368.3034    
     88120   582.94693     -919.07431     -3989.8834      4372.6075    
     88130   609.34609     -919.76513     -4753.4814      4375.5655    
     88140   617.68133     -919.96656     -5152.5858      4376.9699    
     88150   611.21146     -919.77572     -5267.3803      4376.7278    
     88160   590.44349     -919.19947     -5001.6387      4374.8431    
     88170   574.10065     -918.74644     -4151.6621      4371.4501    
     88180   573.38452     -918.71674     -3024.4844      4366.8504    
     88190   600.09244     -919.43765     -1663.5445      4361.4343    
     88200   620.2491      -919.97106     -109.77469      4355.6552    
     88210   641.02741     -920.53038      1268.8166      4350.0008    
     88220   628.90044     -920.19385      2371.0493      4344.8975    
     88230   578.4279      -918.80031      3198.9478      4340.6715    
     88240   591.54051     -919.16935      3666.3223      4337.5506    
     88250   611.23319     -919.71993      3842.169       4335.6489    
     88260   562.67371     -918.37394      4235.1963      4335.0029    
     88270   575.8054      -918.73238      4137.3071      4335.6768    
     88280   636.88475     -920.41761      3648.7309      4337.6087    
     88290   600.91103     -919.41504      3355.2895      4340.6292    
     88300   608.14494     -919.62054      2674.9915      4344.6011    
     88310   678.74372     -921.59909      1435.4772      4349.2851    
     88320   624.52142     -920.14057      258.92159      4354.2949    
     88330   554.675       -918.25266     -933.24115      4359.2506    
     88340   605.79103     -919.71705     -2260.9318      4363.7751    
     88350   584.85985     -919.17325     -3058.0519      4367.485     
     88360   579.27618     -919.05301     -3760.1482      4370.1356    
     88370   625.42545     -920.37304     -4327.3783      4371.5381    
     88380   588.09283     -919.38652     -4284.5746      4371.5624    
     88390   553.87237     -918.4834      -3942.2371      4370.2552    
     88400   611.48952     -920.12893     -3622.3353      4367.7504    
     88410   584.30214     -919.41827     -2649.55        4364.2101    
     88420   569.71559     -919.05226     -1520.1339      4359.9568    
     88430   618.49396     -920.44196     -371.07461      4355.3629    
     88440   595.65978     -919.84358      1132.325       4350.8095    
     88450   585.41989     -919.59491      2210.4452      4346.7393    
     88460   638.34205     -921.10945      2565.8602      4343.4637    
     88470   613.95995     -920.49919      3007.3112      4341.0908    
     88480   577.83379     -919.57608      3439.6691      4339.7261    
     88490   607.11641     -920.48283      3231.8781      4339.4514    
     88500   575.88506     -919.71671      3032.5036      4340.1947    
     88510   572.31502     -919.71886      2610.8497      4341.8577    
     88520   609.74563     -920.8678       1860.6565      4344.2817    
     88530   565.60332     -919.75593      1235.3251      4347.2294    
     88540   531.47006     -918.90564      452.99228      4350.4856    
     88550   565.7937      -919.93739     -656.02422      4353.7927    
     88560   554.14158     -919.67463     -1313.3678      4356.8284    
     88570   538.01013     -919.26378     -1474.8553      4359.3951    
     88580   607.59364     -921.21829     -1679.404       4361.4375    
     88590   625.67874     -921.74219     -1843.53        4362.9126    
     88600   602.8543      -921.14508     -2110.956       4363.7748    
     88610   593.33679     -920.9243      -2216.5554      4363.9634    
     88620   597.32265     -921.08154     -2158.211       4363.4618    
     88630   583.98889     -920.75982     -2026.5943      4362.3031    
     88640   541.2735      -919.61303     -1851.1151      4360.542     
     88650   517.89959     -918.97553     -1515.9783      4358.2505    
     88660   556.44286     -920.02331     -1061.0321      4355.5437    
     88670   575.16982     -920.48666     -281.8604       4352.5808    
     88680   573.28588     -920.3543       621.74114      4349.6033    
     88690   575.50737     -920.3122       1406.5292      4346.8877    
     88700   588.62757     -920.54869      1924.2488      4344.6661    
     88710   585.55502     -920.31351      2441.8326      4343.0968    
     88720   593.67605     -920.37279      2906.8174      4342.325     
     88730   605.6444      -920.5217       2953.8652      4342.4697    
     88740   597.23949     -920.09747      2437.6249      4343.523     
     88750   585.54681     -919.57731      1789.9553      4345.3196    
     88760   587.37938     -919.42376      1303.5198      4347.6542    
     88770   604.52345     -919.68436      774.37737      4350.3619    
     88780   603.30466     -919.43373      234.12717      4353.2757    
     88790   600.34699     -919.14268     -463.03269      4356.2178    
     88800   618.589       -919.4489      -1046.8289      4358.9798    
     88810   626.44684     -919.48086     -1453.5881      4361.3807    
     88820   602.56888     -918.65537     -1750.1626      4363.2978    
     88830   640.78384     -919.57494     -2237.0445      4364.6344    
     88840   643.7669      -919.53911     -2496.6218      4365.2588    
     88850   571.42199     -917.44061     -2370.3739      4365.1034    
     88860   601.63415     -918.19888     -2249.3273      4364.2049    
     88870   658.74331     -919.70677     -1739.9988      4362.6259    
     88880   603.68855     -918.12004     -914.57945      4360.5339    
     88890   636.75006     -918.99975     -411.55016      4358.1767    
     88900   700.45806     -920.75646     -98.075478      4355.7175    
     88910   613.56341     -918.36804      606.99948      4353.2792    
     88920   602.5509      -918.10262      910.91671      4351.0537    
     88930   641.12246     -919.22295      1073.5349      4349.1436    
     88940   592.09442     -917.91866      1344.0093      4347.6015    
     88950   592.38011     -917.98372      1584.8533      4346.5018    
     88960   630.45961     -919.10161      1916.6823      4345.9205    
     88970   621.25593     -918.91837      2255.7031      4345.9524    
     88980   646.73001     -919.71887      2306.3912      4346.6909    
     88990   675.58407     -920.65346      1855.8271      4348.1389    
     89000   619.32974     -919.25847      1256.0511      4350.162     
     89010   605.52369     -919.05406      375.25283      4352.5618    
     89020   601.88851     -919.14039     -581.54333      4355.0622    
     89030   556.74318     -918.06177     -1087.3253      4357.3809    
     89040   578.58371     -918.82592     -1666.7604      4359.3401    
     89050   616.79556     -920.04987     -2102.8335      4360.768     
     89060   574.01295     -919.02234     -1901.4629      4361.5484    
     89070   591.162       -919.6484      -1665.087       4361.7267    
     89080   644.96583     -921.30692     -1558.6648      4361.3781    
     89090   603.45049     -920.33325     -1262.0439      4360.5518    
     89100   564.84211     -919.42673     -1155.1333      4359.3315    
     89110   596.22471     -920.45064     -1133.7807      4357.7573    
     89120   590.55995     -920.43918     -686.22572      4355.8525    
     89130   561.93463     -919.76712     -152.12778      4353.7513    
     89140   596.88099     -920.84487      67.482371      4351.6104    
     89150   577.53395     -920.39954      539.31809      4349.5173    
     89160   540.16082     -919.42552      1121.2303      4347.6152    
     89170   570.27989     -920.29733      1329.4211      4346.0693    
     89180   577.75922     -920.51928      1548.7378      4344.9558    
     89190   552.0572      -919.80224      1806.8697      4344.3424    
     89200   572.66075     -920.35586      1708.6699      4344.2928    
     89210   591.74128     -920.85807      1755.151       4344.7916    
     89220   590.10869     -920.7868       1699.5068      4345.8438    
     89230   587.30677     -920.68648      1324.2745      4347.4243    
     89240   583.43433     -920.55576      777.56319      4349.4177    
     89250   588.98557     -920.6847       206.81846      4351.6554    
     89260   588.98774     -920.65906     -437.72584      4353.955     
     89270   548.5415      -919.50224     -863.57746      4356.1226    
     89280   560.71775     -919.79318     -1285.6065      4358.0159    
     89290   597.61405     -920.75438     -1808.2385      4359.4984    
     89300   567.59882     -919.85277     -1984.8894      4360.4204    
     89310   537.22093     -918.93273     -2038.2293      4360.72      
     89320   580.1359      -920.02814     -2159.8902      4360.3754    
     89330   591.64346     -920.23278     -1861.0649      4359.3647    
     89340   565.85212     -919.3978      -1219.742       4357.7805    
     89350   607.12076     -920.4163      -484.6209       4355.8228    
     89360   646.35943     -921.3722       337.57586      4353.7265    
     89370   616.58383     -920.43         1066.158       4351.7469    
     89380   581.30131     -919.3519       1319.0644      4350.1023    
     89390   594.69987     -919.62301      1147.2501      4348.8713    
     89400   613.65842     -920.04279      1006.0635      4348.0116    
     89410   592.98412     -919.3641       977.87796      4347.4804    
     89420   580.96402     -918.92684      939.5948       4347.2634    
     89430   590.87728     -919.08965      913.04423      4347.3494    
     89440   585.56839     -918.81948      1021.3614      4347.7337    
     89450   617.29658     -919.57242      1057.1198      4348.442     
     89460   620.74677     -919.53942      1042.8018      4349.4888    
     89470   586.93426     -918.48182      841.94528      4350.8636    
     89480   586.91711     -918.36175      430.54907      4352.503     
     89490   633.28251     -919.52007      104.5646       4354.2855    
     89500   649.06173     -919.83468      20.361595      4356.1149    
     89510   640.35083     -919.49383     -339.15571      4357.9486    
     89520   654.26409     -919.80685     -877.14753      4359.6764    
     89530   654.46879     -919.76694     -1325.6228      4361.1352    
     89540   624.70481     -918.92378     -1598.8351      4362.1854    
     89550   602.94912     -918.31949     -1940.3312      4362.7334    
     89560   598.35541     -918.19503     -2453.5542      4362.6638    
     89570   612.43414     -918.5935      -2372.4688      4361.8383    
     89580   586.6189      -917.88509     -1597.1501      4360.2874    
     89590   596.63655     -918.16981     -985.82549      4358.2279    
     89600   637.03389     -919.29956     -334.73611      4355.8651    
     89610   632.79452     -919.2072       404.1457       4353.4056    
     89620   618.01932     -918.84262      1036.9326      4351.0782    
     89630   652.66609     -919.88077      1391.6469      4349.0743    
     89640   633.50793     -919.46409      1807.9951      4347.5193    
     89650   606.66248     -918.87172      1965.1864      4346.5337    
     89660   601.57328     -918.91166      1762.3067      4346.1614    
     89670   619.1071      -919.61617      1614.0879      4346.3517    
     89680   611.35525     -919.65668      1466.5056      4347.059     
     89690   584.11782     -919.17766      1167.7728      4348.2312    
     89700   567.12272     -918.97389      929.78746      4349.7832    
     89710   611.28822     -920.47146      483.87776      4351.6308    
     89720   608.29374     -920.6649      -4.8831489      4353.6392    
     89730   582.8507      -920.21386     -356.55758      4355.6596    
     89740   588.03502     -920.58499     -900.3926       4357.571     
     89750   579.14576     -920.53737     -1704.3328      4359.1991    
     89760   536.19641     -919.49813     -2062.8382      4360.3097    
     89770   558.7456      -920.23441     -2135.0085      4360.7784    
     89780   587.23167     -921.1127      -2007.9547      4360.58      
     89790   538.3405      -919.81571     -1569.1912      4359.7591    
     89800   540.10888     -919.89368     -1266.4504      4358.4392    
     89810   594.57068     -921.41107     -1002.7861      4356.7184    
     89820   582.61149     -921.0712      -482.79743      4354.6896    
     89830   563.92571     -920.53652      80.47268       4352.5112    
     89840   575.04152     -920.81442      458.25092      4350.3561    
     89850   572.15132     -920.689        746.30785      4348.3442    
     89860   556.7632      -920.20205      1180.7716      4346.5729    
     89870   575.19119     -920.63735      1595.6523      4345.1761    
     89880   592.92624     -921.03851      1922.855       4344.2826    
     89890   569.82154     -920.29914      2206.6358      4343.9984    
     89900   563.28169     -920.01061      2178.2257      4344.4073    
     89910   610.79618     -921.20818      1723.2106      4345.4966    
     89920   596.1661      -920.67425      1348.0366      4347.1435    
     89930   527.20196     -918.63422      820.81647      4349.2241    
     89940   560.35939     -919.41236     -128.29466      4351.5639    
     89950   603.25642     -920.42614     -844.1158       4353.8849    
     89960   558.16158     -918.99241     -1057.7163      4355.9673    
     89970   556.6844      -918.77167     -1109.0081      4357.7297    
     89980   616.30814     -920.23096     -966.74805      4359.1581    
     89990   628.38406     -920.37401     -815.157        4360.2924    
     90000   644.15113     -920.65436     -945.36237      4361.1693    
     90010   649.83939     -920.69372     -1030.5517      4361.7571    
     90020   601.44199     -919.2685      -1096.572       4362.0275    
     90030   611.42897     -919.48759     -1626.6575      4361.9415    
     90040   612.49552     -919.47065     -1953.6239      4361.3499    
     90050   570.32306     -918.26214     -1548.4374      4360.1635    
     90060   590.96617     -918.79703     -1156.3129      4358.4827    
     90070   622.18265     -919.62704     -621.86018      4356.4387    
     90080   577.76518     -918.36193      202.7896       4354.2063    
     90090   604.09784     -919.06465      516.32887      4352.0188    
     90100   638.54103     -919.99901      845.14466      4349.993     
     90110   574.00209     -918.19384      1590.9925      4348.2459    
     90120   586.53485     -918.52691      1892.0528      4346.9867    
     90130   657.35395     -920.48065      1979.2016      4346.3204    
     90140   626.72021     -919.6367       2225.3582      4346.2875    
     90150   617.90551     -919.41644      2134.7011      4346.9556    
     90160   660.18193     -920.63395      1626.6648      4348.2959    
     90170   612.35079     -919.36681      1199.349       4350.1689    
     90180   583.40625     -918.62418      512.5419       4352.4321    
     90190   632.98477     -920.06087     -362.35039      4354.8704    
     90200   603.54652     -919.30944     -756.62891      4357.2298    
     90210   543.41887     -917.69231     -1045.3564      4359.373     
     90220   611.73816     -919.62773     -1764.1439      4361.1879    
     90230   643.17424     -920.54197     -2102.9669      4362.4706    
     90240   583.39542     -918.9367      -1989.3771      4363.1096    
     90250   557.21713     -918.25342     -2037.3022      4363.1196    
     90260   611.30854     -919.79008     -2157.004       4362.483     
     90270   600.79486     -919.52952     -1572.218       4361.1832    
     90280   603.89386     -919.65035     -889.72597      4359.3815    
     90290   631.6939      -920.46419     -168.12521      4357.2945    
     90300   624.61394     -920.32408      414.98397      4355.1442    
     90310   610.16343     -919.99577      512.58264      4353.1061    
     90320   591.08608     -919.54545      519.87409      4351.2212    
     90330   593.69763     -919.7014       740.11201      4349.5003    
     90340   580.52464     -919.41888      1015.7875      4348.01      
     90350   570.80037     -919.23031      1206.7004      4346.834     
     90360   562.33528     -919.06782      1480.0116      4346.0401    
     90370   601.81058     -920.23593      1721.1665      4345.7134    
     90380   613.65269     -920.65322      1913.13        4345.933     
     90390   583.12604     -919.91159      2005.44        4346.7639    
     90400   600.91699     -920.53449      1589.0941      4348.2274    
     90410   602.86176     -920.74751      838.94427      4350.2032    
     90420   566.67598     -919.92989      209.47173      4352.4707    
     90430   534.5338      -919.22659     -271.89027      4354.8338    
     90440   577.11067     -920.60724     -960.59672      4357.1283    
     90450   585.39183     -921.05932     -1556.2555      4359.1454    
     90460   540.85023     -920.0401      -1955.8854      4360.6953    
     90470   568.46404     -921.01733     -2268.2739      4361.6417    
     90480   567.15433     -921.18997     -2207.437       4361.8893    
     90490   527.02002     -920.25757     -1884.9462      4361.4475    
     90500   551.82428     -921.09849     -1602.2047      4360.405     
     90510   593.84408     -922.4086      -1356.4727      4358.8467    
     90520   539.86805     -921.03492     -819.23201      4356.8604    
     90530   533.67341     -920.95456     -453.47307      4354.5962    
     90540   575.61565     -922.18991     -231.53064      4352.1692    
     90550   521.90426     -920.74123      296.50766      4349.6641    
     90560   509.34018     -920.40091      868.90109      4347.2377    
     90570   555.12736     -921.64171      1410.0131      4345.0697    
     90580   546.93449     -921.34951      2072.0733      4343.3382    
     90590   531.16186     -920.81872      2482.2561      4342.2445    
     90600   579.0494      -922.02122      2369.7546      4341.9165    
     90610   564.56424     -921.45933      2135.581       4342.3373    
     90620   529.47158     -920.30872      1882.6321      4343.4424    
     90630   536.04348     -920.28306      1592.5632      4345.1587    
     90640   551.90715     -920.47322      1279.7049      4347.4024    
     90650   588.13162     -921.1998       691.73932      4350.074     
     90660   597.80722     -921.18228     -5.390436       4352.9954    
     90670   555.14628     -919.74019     -321.56929      4355.9657    
     90680   595.55202     -920.63124     -964.83433      4358.8615    
     90690   641.0218      -921.67984     -1790.9665      4361.4824    
     90700   574.88843     -919.67872     -2243.4593      4363.5783    
     90710   533.14184     -918.39147     -2733.7838      4364.9839    
     90720   585.57465     -919.72239     -3066.254       4365.5406    
     90730   560.10067     -918.89112     -2769.1999      4365.1475    
     90740   550.70817     -918.51787     -2311.7979      4363.8725    
     90750   604.3084      -919.88896     -1752.3064      4361.8528    
     90760   645.51037     -920.92368     -870.36767      4359.2683    
     90770   622.58603     -920.20387      77.225149      4356.3866    
     90780   641.41337     -920.67222      691.17314      4353.4957    
     90790   626.77958     -920.23185      1125.5589      4350.7961    
     90800   581.02004     -918.94161      1401.556       4348.4261    
     90810   582.45196     -918.95822      1567.8578      4346.4776    
     90820   612.22841     -919.75658      1790.8963      4345.0117    
     90830   582.61987     -918.90489      1973.3171      4344.1002    
     90840   570.01742     -918.52128      2071.2253      4343.807     
     90850   600.61091     -919.32556      2234.3989      4344.1746    
     90860   613.08063     -919.62241      2222.9386      4345.2565    
     90870   610.23315     -919.5001       1742.4233      4347.0481    
     90880   602.71369     -919.25156      1251.9164      4349.423     
     90890   628.73926     -919.93979      644.28672      4352.2281    
     90900   612.9561      -919.4736       161.39091      4355.287     
     90910   602.15254     -919.15342     -438.01923      4358.4392    
     90920   627.42117     -919.83667     -1186.3328      4361.4971    
     90930   655.31095     -920.60873     -1980.2958      4364.2209    
     90940   599.84066     -919.08769     -2323.054       4366.3681    
     90950   570.19331     -918.28697     -2614.0623      4367.8073    
     90960   630.05026     -919.97207     -3148.205       4368.4256    
     90970   620.54219     -919.74322     -3276.2494      4368.0621    
     90980   573.95599     -918.49702     -2922.4305      4366.6627    
     90990   588.04084     -918.9342      -2448.6149      4364.317     
     91000   607.70674     -919.52764     -1708.5997      4361.1721    
     91010   573.99824     -918.63806     -696.73182      4357.4561    
     91020   594.31947     -919.24603      121.05538      4353.469     
     91030   627.28568     -920.20957      1099.5706      4349.4813    
     91040   606.60389     -919.69866      2164.7162      4345.8006    
     91050   590.50872     -919.32564      2977.4976      4342.7585    
     91060   629.07084     -920.48681      3346.7732      4340.6127    
     91070   631.50039     -920.67883      3574.3399      4339.5009    
     91080   588.99434     -919.64712      3575.6494      4339.5072    
     91090   604.08299     -920.23517      2945.5502      4340.6313    
     91100   593.56425     -920.12999      2293.5613      4342.7132    
     91110   564.9342      -919.52255      1444.5623      4345.5534    
     91120   565.18567     -919.70941      619.45356      4348.9023    
     91130   554.38333     -919.57366     -4.0362215      4352.5096    
     91140   558.92098     -919.84441     -700.24517      4356.1738    
     91150   584.44442     -920.6864      -1672.9953      4359.6677    
     91160   571.21489     -920.44378     -2384.3434      4362.6941    
     91170   552.87791     -920.04063     -2758.0488      4365.019     
     91180   579.10204     -920.86343     -3134.3589      4366.4994    
     91190   558.94561     -920.38349     -3156.0364      4367.0142    
     91200   569.20667     -920.73515     -3080.0822      4366.5309    
     91210   592.99692     -921.45396     -2767.4321      4365.0659    
     91220   580.73426     -921.16745     -2012.7156      4362.712     
     91230   565.97355     -920.80169     -1158.3434      4359.6896    
     91240   578.46046     -921.18047     -758.93136      4356.2456    
     91250   549.77798     -920.4008      -217.28175      4352.5221    
     91260   505.7795      -919.16533      634.41015      4348.6909    
     91270   554.14498     -920.45463      1412.8646      4345.0083    
     91280   595.97563     -921.51967      2412.0745      4341.7345    
     91290   567.86443     -920.61786      3357.8949      4339.183     
     91300   568.37028     -920.48833      3717.3672      4337.6458    
     91310   609.51976     -921.45094      3706.544       4337.2579    
     91320   581.72697     -920.47228      3567.266       4338.0396    
     91330   553.8636      -919.47781      3084.2572      4339.9593    
     91340   581.15792     -919.97905      2149.8504      4342.8805    
     91350   580.74637     -919.6741       1163.561       4346.5358    
     91360   543.53946     -918.34411      399.54876      4350.6335    
     91370   597.56938     -919.54138     -406.98577      4354.9281    
     91380   639.32678     -920.39211     -1031.7197      4359.1755    
     91390   616.5548      -919.50252     -1839.6533      4363.1605    
     91400   627.46776     -919.60582     -2603.7796      4366.6276    
     91410   641.58028     -919.84106     -3067.054       4369.3293    
     91420   620.79641     -919.15238     -3138.4043      4371.1088    
     91430   625.23295     -919.19938     -3461.6468      4371.9044    
     91440   629.40138     -919.2648      -3791.1915      4371.6042    
     91450   602.83818     -918.49784     -3512.3877      4370.1064    
     91460   607.227       -918.60247     -3053.1344      4367.4667    
     91470   614.45527     -918.79251     -2233.815       4363.8273    
     91480   595.44485     -918.25772     -1289.6013      4359.4305    
     91490   592.80052     -918.17685     -412.30277      4354.5613    
     91500   598.44721     -918.31886      980.41955      4349.5151    
     91510   617.36391     -918.82564      2529.1019      4344.7209    
     91520   652.6841      -919.79737      3587.8873      4340.6545    
     91530   654.65849     -919.87345      4386.6156      4337.6673    
     91540   606.55688     -918.58241      4789.1803      4336.0208    
     91550   647.04504     -919.77476      4463.1626      4335.8493    
     91560   638.67685     -919.63843      4087.4305      4337.0908    
     91570   587.20094     -918.32052      3855.4507      4339.6582    
     91580   613.30611     -919.16096      2924.856       4343.4719    
     91590   658.0822      -920.54163      1675.789       4348.272     
     91600   611.14853     -919.39663      589.34603      4353.6941    
     91610   606.62251     -919.43408     -899.0477       4359.3839    
     91620   612.14074     -919.75798     -2555.2501      4364.8794    
     91630   557.04492     -918.38677     -3954.6991      4369.6543    
     91640   541.47894     -918.08647     -4772.1754      4373.2552    
     91650   574.71219     -919.12243     -5102.551       4375.3935    
     91660   592.27247     -919.71944     -4969.9903      4375.94      
     91670   591.07585     -919.79514     -4487.8036      4374.9099    
     91680   610.2002      -920.44028     -3805.0406      4372.4332    
     91690   620.09099     -920.83936     -2799.6634      4368.7176    
     91700   623.46148     -921.07196     -1738.7433      4364.0631    
     91710   610.02866     -920.85114     -855.24183      4358.7925    
     91720   574.26083     -920.00763      244.88889      4353.1951    
     91730   564.66487     -919.87274      1424.7454      4347.615     
     91740   587.02453     -920.61535      2359.5167      4342.4169    
     91750   557.11853     -919.89568      3274.6919      4337.9065    
     91760   533.28466     -919.31992      4246.5882      4334.3831    
     91770   567.99574     -920.35358      4827.3142      4332.1482    
     91780   561.57721     -920.23072      5137.2272      4331.4059    
     91790   582.78375     -920.87137      4997.2916      4332.2659    
     91800   596.84038     -921.31478      4353.1244      4334.7057    
     91810   571.38421     -920.66562      3464.4806      4338.5542    
     91820   538.67587     -919.80353      2334.1135      4343.5527    
     91830   583.80914     -921.08619      771.29596      4349.3542    
     91840   589.49703     -921.25922     -600.3203       4355.4951    
     91850   540.26978     -919.89313     -1744.3146      4361.5424    
     91860   559.95402     -920.41402     -2998.6808      4367.1173    
     91870   598.03743     -921.41364     -4108.6462      4371.8161    
     91880   568.85092     -920.52292     -4788.2037      4375.2757    
     91890   542.04683     -919.67596     -5223.9104      4377.2527    
     91900   596.60199     -921.05362     -5576.211       4377.5788    
     91910   584.09009     -920.53659     -5140.7301      4376.1445    
     91920   545.73234     -919.29211     -4257.3436      4373.0602    
     91930   600.61377     -920.60935     -3459.6121      4368.5768    
     91940   597.20028     -920.27795     -2157.8999      4362.9591    
     91950   539.04255     -918.432       -476.6201       4356.6101    
     91960   599.9474      -919.87738      1043.2929      4350.0465    
     91970   658.47518     -921.2297       2529.8926      4343.7555    
     91980   586.95381     -919.00196      3977.5027      4338.2091    
     91990   584.61996     -918.73185      4793.3498      4333.8501    
     92000   629.86529     -919.78324      5357.0039      4330.9588    
     92010   612.89892     -919.12791      5778.7326      4329.727     
     92020   629.58798     -919.43949      5532.2767      4330.2877    
     92030   625.63517     -919.20231      4805.5171      4332.5877    
     92040   585.34961     -917.97972      4198.3425      4336.4392    
     92050   610.01502     -918.56981      3210.9905      4341.6577    
     92060   630.19027     -919.03369      1784.7747      4347.9468    
     92070   619.04035     -918.63674      364.59048      4354.8841    
     92080   662.20248     -919.76192     -1292.7362      4362.0154    
     92090   644.25047     -919.20949     -2672.8561      4368.8312    
     92100   609.02375     -918.19887     -3914.7151      4374.8779    
     92110   661.4132      -919.6381      -5446.4657      4379.7288    
     92120   645.32575     -919.20603     -6434.0838      4382.9003    
     92130   557.28123     -916.79695     -6637.9213      4384.0581    
     92140   578.81798     -917.42891     -6379.6009      4383.1055    
     92150   645.90204     -919.32968     -5643.6362      4380.1094    
     92160   632.92207     -919.02947     -4353.8404      4375.2956    
     92170   633.32613     -919.12322     -2744.1603      4369.062     
     92180   665.83875     -920.13908     -1208.2482      4361.9079    
     92190   615.78205     -918.88591      574.98061      4354.3329    
     92200   607.48546     -918.80126      2241.8849      4346.8906    
     92210   622.2405      -919.36853      3506.2698      4340.1023    
     92220   610.26472     -919.20986      4634.7825      4334.3777    
     92230   588.58052     -918.7879       5658.9808      4330.0765    
     92240   597.42724     -919.21721      6320.6507      4327.5177    
     92250   626.33839     -920.22198      6417.7249      4326.9142    
     92260   614.70734     -920.12506      5872.4522      4328.307     
     92270   553.93867     -918.65183      5019.9538      4331.5553    
     92280   564.75488     -919.13738      3926.3712      4336.412     
     92290   612.89481     -920.64664      2670.4068      4342.5542    
     92300   608.01359     -920.68032      1185.9923      4349.5966    
     92310   570.97411     -919.79659     -487.27456      4357.0811    
     92320   600.24509     -920.73117     -2421.8066      4364.4752    
     92330   590.51722     -920.56506     -4021.0769      4371.1767    
     92340   556.02153     -919.68748     -5166.8993      4376.6639    
     92350   565.02639     -919.99431     -5984.6356      4380.5507    
     92360   586.44045     -920.63125     -6601.7846      4382.5527    
     92370   581.87303     -920.54207     -6599.6713      4382.4686    
     92380   584.91236     -920.66026     -5909.7378      4380.2881    
     92390   600.97649     -921.14042     -5057.2806      4376.2058    
     92400   549.86912     -919.74749     -4065.8793      4370.4907    
     92410   508.73389     -918.60723     -3013.0187      4363.4524    
     92420   527.4735      -919.08876     -1338.5032      4355.4424    
     92430   574.064       -920.2998       1022.692       4346.997     
     92440   580.34152     -920.36016      3477.9574      4338.8492    
     92450   599.87027     -920.77779      5474.4729      4331.7564    
     92460   637.05338     -921.68877      6992.1816      4326.3463    
     92470   637.35079     -921.60269      7890.8881      4323.0923    
     92480   617.90349     -921.00663      7864.9502      4322.2716    
     92490   598.7683      -920.44741      7109.3122      4323.8943    
     92500   554.54297     -919.20045      5728.5059      4327.741     
     92510   514.56668     -918.05643      4132.0119      4333.4098    
     92520   555.68487     -919.13551      2561.3365      4340.4232    
     92530   597.93282     -920.21962      1111.4823      4348.3036    
     92540   584.40737     -919.7504      -524.12899      4356.5911    
     92550   587.51039     -919.74377     -2429.7633      4364.7661    
     92560   601.17314     -920.0283      -4165.5474      4372.2289    
     92570   599.66824     -919.89934     -5456.6437      4378.422     
     92580   597.18423     -919.75779     -6296.781       4382.9181    
     92590   583.57709     -919.3204      -6763.8405      4385.4303    
     92600   597.392       -919.65642     -6971.2408      4385.79      
     92610   626.66178     -920.43969     -6602.8593      4383.9288    
     92620   588.8605      -919.37676     -5348.6783      4379.9719    
     92630   607.05813     -919.87793     -4065.8246      4374.2909    
     92640   636.43705     -920.6954      -2673.8688      4367.302     
     92650   578.16938     -919.08238     -765.4558       4359.4654    
     92660   576.50799     -919.02699      1074.4211      4351.3721    
     92670   647.41382     -920.97806      2477.3821      4343.596     
     92680   587.88584     -919.31029      4074.5153      4336.5995    
     92690   537.92907     -917.90018      5526.2116      4330.8717    
     92700   607.50823     -919.79507      6139.0866      4326.843     
     92710   610.30505     -919.83556      6666.3707      4324.7293    
     92720   558.02559     -918.35465      6930.4056      4324.6923    
     92730   613.65039     -919.87348      6435.4848      4326.8051    
     92740   634.6949      -920.43687      5737.5101      4330.9454    
     92750   606.05602     -919.63856      4466.4047      4336.8973    
     92760   621.31905     -920.06702      2440.4301      4344.2692    
     92770   621.69971     -920.08335      466.21222      4352.4574    
     92780   587.7341      -919.14396     -1277.0849      4360.8493    
     92790   585.97517     -919.08882     -3118.1125      4368.8779    
     92800   590.70883     -919.19879     -4626.7785      4375.9626    
     92810   605.9526      -919.59563     -5741.816       4381.6107    
     92820   614.83126     -919.82114     -6459.1827      4385.4543    
     92830   604.05475     -919.51351     -6872.8409      4387.2474    
     92840   610.5869      -919.70004     -6962.3863      4386.8495    
     92850   630.82615     -920.28766     -6708.2782      4384.2255    
     92860   581.7191      -918.96642     -5630.0929      4379.4734    
     92870   556.87572     -918.31641     -4059.6186      4372.929     
     92880   601.88524     -919.58915     -2353.841       4365.0908    
     92890   613.50857     -919.92539     -452.55843      4356.5086    
     92900   568.31914     -918.67228      1722.7753      4347.7957    
     92910   603.47563     -919.6374       3382.8         4339.6128    
     92920   610.73137     -919.81798      5090.8273      4332.5002    
     92930   590.34894     -919.23145      6725.9317      4326.9856    
     92940   622.68313     -920.11669      7630.7917      4323.5557    
     92950   640.8141      -920.62924      7859.803       4322.4925    
     92960   616.44531     -919.99696      7586.9978      4323.8748    
     92970   584.41589     -919.17291      6725.9109      4327.6222    
     92980   613.47501     -920.05603      5120.3343      4333.4718    
     92990   617.59978     -920.25714      3320.3748      4340.9514    
     93000   586.63091     -919.48699      1242.3002      4349.5018    
     93010   585.39997     -919.53211     -971.61549      4358.4786    
     93020   595.11207     -919.87112     -3000.8555      4367.1866    
     93030   560.94827     -918.97866     -4684.5243      4374.9815    
     93040   554.27749     -918.83159     -6104.8772      4381.3117    
     93050   584.58807     -919.70037     -7128.4435      4385.7142    
     93060   582.64528     -919.67146     -7516.0473      4387.8589    
     93070   589.73679     -919.89925     -7405.7673      4387.6078    
     93080   607.59035     -920.43433     -6610.6135      4385.0021    
     93090   604.50748     -920.39819     -5461.934       4380.2885    
     93100   597.10399     -920.24794     -4230.9411      4373.8326    
     93110   602.42006     -920.45062     -2569.3262      4366.0465    
     93120   600.86938     -920.45781     -512.74044      4357.466     
     93130   587.46988     -920.12664      1484.5528      4348.7362    
     93140   570.65419     -919.68576      3106.8833      4340.4799    
     93150   581.46441     -919.99602      4592.0267      4333.2144    
     93160   599.56855     -920.50137      5831.9807      4327.3952    
     93170   570.37735     -919.69195      6828.5112      4323.4032    
     93180   546.69797     -919.02756      7139.8171      4321.5287    
     93190   583.72704     -920.03879      6847.189       4321.8699    
     93200   573.39024     -919.72342      6470.7541      4324.3525    
     93210   564.20743     -919.431        5688.3055      4328.8541    
     93220   607.31053     -920.57277      4313.6031      4335.1328    
     93230   606.53681     -920.47991      2797.1067      4342.7834    
     93240   594.35811     -920.06053      1037.3769      4351.3331    
     93250   611.51724     -920.43807     -1085.4439      4360.226     
     93260   607.93832     -920.22032     -3177.1711      4368.7998    
     93270   602.47814     -919.94094     -4996.1861      4376.3891    
     93280   579.01227     -919.15093     -6319.8014      4382.41      
     93290   576.36687     -918.92847     -7143.7118      4386.43      
     93300   630.8362      -920.27735     -7714.5353      4388.1681    
     93310   618.84209     -919.78276     -7481.829       4387.4563    
     93320   569.17756     -918.25935     -6461.2409      4384.3712    
     93330   602.06223     -919.02356     -5472.977       4379.2191    
     93340   606.86486     -918.98874     -4228.6747      4372.3362    
     93350   570.71884     -917.81299     -2369.0933      4364.1404    
     93360   615.53829     -918.86635     -155.52234      4355.2244    
     93370   662.74599     -919.96131      2179.7819      4346.2896    
     93380   641.06838     -919.15815      4451.5007      4338.0683    
     93390   652.07611     -919.29238      6199.3991      4331.256     
     93400   695.91148     -920.37318      7223.8762      4326.3843    
     93410   636.08834     -918.63021      7584.7164      4323.7649    
     93420   585.57065     -917.18619      7248.4097      4323.5038    
     93430   616.18997     -918.00736      6353.5947      4325.4943    
     93440   614.98039     -917.95279      5721.5387      4329.4876    
     93450   601.48681     -917.56711      4790.8769      4335.2695    
     93460   649.36342     -918.8939       3353.9993      4342.5529    
     93470   665.25777     -919.34829      1610.4453      4350.9008    
     93480   665.99482     -919.41469     -546.88292      4359.7619    
     93490   638.45553     -918.72406     -2749.3376      4368.4633    
     93500   622.28018     -918.37073     -4642.563       4376.3102    
     93510   632.91039     -918.78864     -6259.6256      4382.6883    
     93520   628.59344     -918.83564     -7229.3461      4387.0837    
     93530   593.71135     -918.07194     -7434.1365      4389.1842    
     93540   610.18014     -918.77404     -7508.7671      4388.9002    
     93550   615.38107     -919.21651     -7142.1013      4386.2228    
     93560   578.53494     -918.51563     -5961.2022      4381.2888    
     93570   597.28994     -919.36386     -4438.0663      4374.4739    
     93580   628.704       -920.57944     -2691.9523      4366.2736    
     93590   607.8077      -920.32958     -579.98984      4357.2617    
     93600   589.67042     -920.10785      1530.9705      4348.104     
     93610   597.85404     -920.56317      3409.8217      4339.4615    
     93620   578.15198     -920.19156      4951.576       4331.917     
     93630   547.72197     -919.46195      6183.6175      4325.9465    
     93640   560.40932     -919.88483      7083.2641      4321.9192    
     93650   588.05186     -920.6993       7752.5052      4320.1096    
     93660   584.21193     -920.63283      7826.1627      4320.7054    
     93670   575.0818      -920.41516      7230.8233      4323.726     
     93680   597.32633     -921.06518      5798.9994      4328.9834    
     93690   581.95657     -920.66401      3868.3064      4336.0458    
     93700   541.05408     -919.53329      1822.8433      4344.325     
     93710   574.30376     -920.43234     -259.16225      4353.1827    
     93720   595.16268     -920.96129     -2224.2211      4361.9655    
     93730   535.2493      -919.22887     -3820.416       4370.0552    
     93740   559.99514     -919.82635     -5218.0319      4376.9315    
     93750   624.21646     -921.49814     -6180.4923      4382.1503    
     93760   588.3611      -920.39542     -6637.5076      4385.4021    
     93770   579.14238     -920.04581     -7079.6755      4386.5242    
     93780   614.62272     -920.93988     -7203.4363      4385.3862    
     93790   564.39618     -919.45956     -6502.8145      4381.9739    
     93800   549.12469     -918.95022     -5498.103       4376.505     
     93810   584.77878     -919.83163     -3999.9323      4369.3199    
     93820   565.20451     -919.15344     -1801.948       4360.9172    
     93830   567.10516     -919.04959      535.80897      4351.9917    
     93840   625.12483     -920.47355      2552.1199      4343.2707    
     93850   597.52446     -919.50783      4781.3028      4335.4081    
     93860   616.93687     -919.85928      6472.9503      4329.0705    
     93870   665.20703     -921.02284      7288.3487      4324.7612    
     93880   625.89425     -919.79381      7785.9597      4322.7403    
     93890   611.96133     -919.31105      7462.636       4323.1332    
     93900   637.1163      -919.9387       6607.6006      4325.8433    
     93910   567.88489     -917.96127      5659.4561      4330.6155    
     93920   587.86584     -918.46515      3903.3369      4337.1342    
     93930   635.82994     -919.73114      1745.2175      4344.8643    
     93940   567.28348     -917.75808      155.68973      4353.1596    
     93950   594.17917     -918.4284      -1530.5528      4361.4957    
     93960   656.56509     -920.06885     -3242.9911      4369.3388    
     93970   607.2778      -918.61864     -4493.5773      4376.1564    
     93980   605.91127     -918.51306     -5616.9349      4381.5334    
     93990   679.78394     -920.51019     -6602.9823      4385.1086    
     94000   622.2659      -918.89174     -6901.4114      4386.5841    
     94010   586.38868     -917.90206     -6613.6467      4385.8636    
     94020   638.83801     -919.37603     -5964.1083      4383.0402    
     94030   658.57525     -919.96685     -4910.2584      4378.3366    
     94040   630.80276     -919.27393     -3540.8103      4372.1023    
     94050   613.97498     -918.91348     -2023.6244      4364.7791    
     94060   601.79576     -918.69982     -275.86836      4356.8645    
     94070   612.48761     -919.1479       1360.0223      4348.906     
     94080   599.53348     -918.97646      2841.281       4341.4197    
     94090   583.05178     -918.74159      4170.438       4334.8683    
     94100   610.39442     -919.77538      5100.6782      4329.6492    
     94110   580.55247     -919.27223      5916.9006      4326.0504    
     94120   534.13985     -918.29709      6441.5744      4324.3108    
     94130   596.26548     -920.34043      6351.7158      4324.5704    
     94140   601.8493      -920.82338      6239.8653      4326.8168    
     94150   576.3054      -920.4132       5640.0261      4330.9967    
     94160   611.82722     -921.66706      4319.4749      4336.9184    
     94170   628.51058     -922.38399      2453.9853      4344.1739    
     94180   567.24743     -920.88903      315.69661      4352.1887    
     94190   552.85688     -920.6364      -2005.8887      4360.2878    
     94200   519.15031     -919.78642     -3808.5505      4367.7562    
     94210   510.27809     -919.57054     -5262.2059      4374.0095    
     94220   549.67257     -920.65589     -6285.6382      4378.583     
     94230   562.04631     -920.96839     -6541.1952      4381.1612    
     94240   566.24212     -921.04274     -6385.8899      4381.6561    
     94250   597.66398     -921.87072     -5998.1017      4380.118     
     94260   564.39449     -920.89943     -5163.9334      4376.6888    
     94270   548.94518     -920.41703     -4254.3398      4371.636     
     94280   555.4706      -920.52374     -3248.3209      4365.2618    
     94290   522.13933     -919.49573     -1687.5853      4357.9134    
     94300   551.2241      -920.16714      191.21543      4350.0867    
     94310   596.03435     -921.23329      2131.2749      4342.3718    
     94320   571.41398     -920.35463      4151.1165      4335.3804    
     94330   578.44615     -920.35366      5742.0989      4329.7211    
     94340   631.48782     -921.62554      6554.0333      4325.8681    
     94350   605.1096      -920.71169      6948.4591      4324.0734    
     94360   561.81312     -919.3618       6794.5282      4324.4425    
     94370   583.00762     -919.812        5858.5049      4326.9086    
     94380   588.11319     -919.81436      4841.3841      4331.2023    
     94390   566.36326     -919.07661      3610.1776      4336.9959    
     94400   604.41003     -919.9993       2078.5331      4343.9038    
     94410   603.49653     -919.83552      367.65239      4351.4511    
     94420   589.63755     -919.32197     -1473.8023      4359.0974    
     94430   587.30788     -919.12982     -3136.6096      4366.2645    
     94440   581.34464     -918.83606     -4123.2045      4372.4393    
     94450   633.9983      -920.17591     -4927.2916      4377.2892    
     94460   635.00119     -920.10159     -5635.5494      4380.5585    
     94470   570.4666      -918.23592     -6084.9136      4382.0266    
     94480   586.09506     -918.60805     -6137.1345      4381.5586    
     94490   616.91879     -919.40385     -5688.3591      4379.1499    
     94500   601.00269     -918.91309     -4571.2053      4374.9636    
     94510   628.323       -919.63489     -3183.5311      4369.3549    
     94520   648.21114     -920.16266     -1360.6051      4362.7861    
     94530   624.41039     -919.49195      536.52727      4355.835     
     94540   657.41762     -920.41623      1867.9713      4349.0848    
     94550   657.58702     -920.45631      2881.2822      4342.9635    
     94560   567.58341     -918.00505      3542.0698      4337.7813    
     94570   554.71415     -917.6833       3926.0262      4333.7356    
     94580   578.94477     -918.3724       4610.8622      4330.9548    
     94590   577.73143     -918.34247      5215.0512      4329.6311    
     94600   593.1651      -918.77113      5547.471       4329.9398    
     94610   620.86373     -919.54231      5469.3452      4331.9754    
     94620   650.96528     -920.39909      4591.8938      4335.6958    
     94630   639.2728      -920.12133      3265.1642      4340.8371    
     94640   613.9016      -919.48395      1873.1682      4346.9912    
     94650   600.27168     -919.17574      556.89853      4353.7246    
     94660   629.02451     -920.05058     -1007.3556      4360.6116    
     94670   609.90224     -919.60604     -2468.9806      4367.1662    
     94680   594.88812     -919.28188     -3683.7525      4372.9259    
     94690   634.93023     -920.5072      -4926.7676      4377.495     
     94700   606.2301      -919.85854     -5945.4634      4380.4844    
     94710   530.13712     -917.90289     -6327.8093      4381.5846    
     94720   574.24609     -919.29379     -6336.5352      4380.6707    
     94730   605.16674     -920.359       -5638.0541      4377.7647    
     94740   551.68945     -919.10572     -4427.0864      4373.0969    
     94750   569.77055     -919.85836     -3125.7776      4367.0562    
     94760   604.51918     -921.1132      -1591.0313      4360.0761    
     94770   572.27349     -920.53938      172.08972      4352.652     
     94780   534.77305     -919.7957       1879.8894      4345.3398    
     94790   585.61822     -921.49983      3193.3145      4338.6612    
     94800   571.77048     -921.39634      4699.2392      4333.0423    
     94810   556.59588     -921.2153       5809.1362      4328.9243    
     94820   572.9568      -921.87814      6152.6839      4326.6284    
     94830   555.78832     -921.57647      6084.5463      4326.258     
     94840   527.97305     -920.93318      5614.8846      4327.781     
     94850   539.52236     -921.34271      4585.7905      4331.0365    
     94860   527.00484     -921.04215      3524.1239      4335.7161    
     94870   536.21672     -921.30896      2302.6099      4341.4777    
     94880   538.39558     -921.34598      877.89177      4347.9352    
     94890   512.17175     -920.55995     -536.68514      4354.6467    
     94900   544.42764     -921.36478     -2041.1019      4361.1611    
     94910   582.12189     -922.29235     -3448.4817      4367.005     
     94920   542.92635     -921.07622     -4355.8531      4371.7449    
     94930   526.07198     -920.47801     -5023.5548      4375.0847    
     94940   559.68613     -921.26473     -5443.9448      4376.8157    
     94950   559.79912     -921.11238     -5221.4682      4376.826     
     94960   563.33512     -921.05906     -4760.8746      4375.1836    
     94970   575.6004      -921.25102     -4319.5813      4372.0406    
     94980   552.92585     -920.47748     -3427.978       4367.5669    
     94990   530.99182     -919.72581     -2127.5777      4362.0564    
     95000   572.07421     -920.71068     -706.9826       4355.9237    
     95010   581.2033      -920.79551      910.65761      4349.6292    
     95020   554.20795     -919.88258      2552.398       4343.6808    
     95030   582.96738     -920.51892      3675.2382      4338.5729    
     95040   617.22098     -921.30928      4363.7748      4334.6513    
     95050   579.8146      -920.13131      4917.517       4332.1271    
     95060   554.70727     -919.31216      5200.4344      4331.1561    
     95070   605.80179     -920.61053      4965.4595      4331.805     
     95080   591.41475     -920.0944       4621.9357      4334.0052    
     95090   565.53656     -919.27376      3909.3747      4337.63      
     95100   599.14869     -920.10287      2821.0951      4342.4503    
     95110   606.39263     -920.19652      1578.2906      4348.1283    
     95120   588.93603     -919.60921      32.009444      4354.2625    
     95130   589.67241     -919.52566     -1578.1554      4360.3701    
     95140   599.72581     -919.69533     -2830.51        4365.9535    
     95150   583.27586     -919.12792     -3645.8931      4370.6185    
     95160   603.91787     -919.5924      -4240.7842      4374.102     
     95170   620.83072     -919.95579     -4503.3805      4376.225     
     95180   635.37039     -920.27056     -4635.0791      4376.9064    
     95190   631.7815      -920.10696     -4703.0853      4376.1127    
     95200   580.59972     -918.64093     -4413.3321      4373.8485    
     95210   568.99568     -918.27556     -4008.0349      4370.21      
     95220   590.12308     -918.80567     -3007.8482      4365.3587    
     95230   592.86946     -918.81139     -1397.4082      4359.6278    
     95240   609.66025     -919.19725      328.21169      4353.5249    
     95250   634.9648      -919.81543      1927.5928      4347.5953    
     95260   625.46534     -919.47475      3342.9772      4342.3389    
     95270   633.5191      -919.63535      4260.2524      4338.179     
     95280   673.62902     -920.71097      4633.1613      4335.3866    
     95290   608.83044     -918.9061       4997.7796      4334.0801    
     95300   550.63484     -917.29488      4962.7052      4334.3406    
     95310   623.23031     -919.30899      4364.8987      4336.1369    
     95320   668.62821     -920.57764      3500.1501      4339.2753    
     95330   607.41196     -918.91569      2707.7345      4343.4868    
     95340   581.61496     -918.25033      1466.941       4348.4959    
     95350   595.02345     -918.67057      101.20114      4353.9173    
     95360   603.90882     -918.96643     -1062.6343      4359.326     
     95370   618.94599     -919.44658     -2084.7842      4364.3499    
     95380   624.42163     -919.68697     -2900.884       4368.6709    
     95390   611.09034     -919.4389      -3703.9186      4372.0285    
     95400   602.55176     -919.35541     -4383.1755      4374.1804    
     95410   602.13089     -919.53136     -4569.8383      4374.9338    
     95420   597.96566     -919.63156     -4264.4076      4374.247     
     95430   605.55512     -920.08779     -3820.455       4372.2257    
     95440   591.82809     -919.96756     -3109.1235      4369.0365    
     95450   591.45143     -920.2203      -2161.6451      4364.9228    
     95460   614.10256     -921.11344     -1163.1096      4360.1956    
     95470   604.21938     -921.10709     -264.79076      4355.1783    
     95480   533.83975     -919.3773       566.0169       4350.1622    
     95490   534.6532      -919.57203      1167.0172      4345.4022    
     95500   548.51618     -920.08643      1906.1738      4341.0934    
     95510   534.9685      -919.80305      2978.621       4337.4637    
     95520   520.15245     -919.44024      3988.436       4334.826     
     95530   587.50293     -921.33369      4538.6843      4333.4637    
     95540   604.32873     -921.81361      4919.6675      4333.5376    
     95550   597.51471     -921.64301      4759.5634      4335.1319    
     95560   600.32869     -921.74304      3833.7416      4338.1662    
     95570   582.25689     -921.26175      2539.7503      4342.3404    
     95580   542.0272      -920.14858      1323.5641      4347.2474    
     95590   560.06613     -920.62806      69.756079      4352.4905    
     95600   578.12478     -921.07996     -1155.2199      4357.6738    
     95610   550.91307     -920.25343     -2206.6118      4362.4159    
     95620   539.47403     -919.84099     -3062.2112      4366.3878    
     95630   544.71006     -919.85854     -3681.7631      4369.3336    
     95640   554.61013     -919.97057     -4126.2337      4371.0721    
     95650   585.20091     -920.62699     -4200.4435      4371.4889    
     95660   588.12793     -920.49437     -3782.7718      4370.5902    
     95670   568.38967     -919.72812     -3096.0051      4368.5302    
     95680   596.6557      -920.28704     -2406.6401      4365.5423    
     95690   629.47546     -920.964       -1585.0723      4361.8705    
     95700   606.39358     -920.10948     -716.95766      4357.7874    
     95710   566.39538     -918.81393      262.43333      4353.579     
     95720   563.6822      -918.56214      1361.9702      4349.5567    
     95730   626.06391     -920.11666      2302.0769      4346.0511    
     95740   655.40161     -920.77302      2971.6898      4343.3412    
     95750   607.52441     -919.33226      3325.7497      4341.6161    
     95760   599.87836     -919.04016      3437.4698      4340.9662    
     95770   645.70519     -920.25183      2973.5751      4341.388     
     95780   610.80086     -919.24531      2454.87        4342.7309    
     95790   559.62609     -917.7996       2022.3212      4344.8153    
     95800   584.9815      -918.47203      1541.6104      4347.4872    
     95810   598.26899     -918.80108      1018.7933      4350.5828    
     95820   603.84716     -918.9176       513.2931       4353.9337    
     95830   639.7081      -919.88331     -140.34154      4357.3709    
     95840   646.9856      -920.07591     -876.58538      4360.6882    
     95850   608.96595     -919.02975     -1473.0746      4363.6667    
     95860   612.75391     -919.15507     -2256.8673      4366.1105    
     95870   610.99918     -919.12929     -2726.9936      4367.8029    
     95880   621.26856     -919.44493     -2868.9188      4368.6125    
     95890   634.90029     -919.86987     -2961.2878      4368.5057    
     95900   592.56647     -918.75028     -2792.6402      4367.4843    
     95910   591.09748     -918.76424     -2339.1608      4365.6227    
     95920   627.30074     -919.82607     -1619.7422      4363.0855    
     95930   609.65055     -919.39877     -769.1328       4360.113     
     95940   613.30319     -919.56846     -21.922447      4356.9771    
     95950   648.02435     -920.61704      557.78005      4353.9118    
     95960   607.89804     -919.60379      1192.8683      4351.1077    
     95970   583.53465     -919.03022      1222.2956      4348.7315    
     95980   589.01354     -919.28431      1066.5546      4346.7967    
     95990   535.31893     -917.87838      1360.848       4345.2611    
     96000   536.03229     -917.95424      1856.841       4344.1976    
     96010   613.7335      -920.1514       2233.4126      4343.7404    
     96020   626.99916     -920.56444      2640.712       4343.9959    
     96030   614.18537     -920.27203      2911.762       4345.0716    
     96040   627.34849     -920.72309      2547.549       4347.0161    
     96050   626.15456     -920.80024      1685.4254      4349.7053    
     96060   622.74533     -920.84955      400.28471      4352.8522    
     96070   573.58965     -919.65041     -536.72776      4356.0709    
     96080   545.03356     -919.02445     -1235.8216      4359.0614    
     96090   577.65736     -920.10766     -1881.4775      4361.6041    
     96100   577.85953     -920.3125      -2294.129       4363.5105    
     96110   565.75821     -920.19182     -2361.5378      4364.6701    
     96120   590.24145     -921.11319     -2528.8248      4365.0629    
     96130   563.1404      -920.62316     -2566.8912      4364.6617    
     96140   516.70605     -919.57783     -2414.3942      4363.474     
     96150   535.01287     -920.30427     -2300.7596      4361.5561    
     96160   558.2696      -921.15565     -1925.7618      4358.9692    
     96170   528.48413     -920.50586     -1011.1783      4355.8571    
     96180   534.30825     -920.80753     -37.337284      4352.5026    
     96190   569.30006     -921.89333      881.00702      4349.212     
     96200   583.00093     -922.37237      1736.5179      4346.2705    
     96210   571.07896     -922.1291       2428.8468      4343.9342    
     96220   553.43411     -921.70912      2728.439       4342.3977    
     96230   553.63178     -921.76482      2637.1566      4341.7379    
     96240   548.91684     -921.66129      2315.6324      4341.9117    
     96250   539.07973     -921.39132      1913.966       4342.8075    
     96260   516.65375     -920.739        1415.748       4344.286     
     96270   522.54223     -920.8338       762.12409      4346.1792    
     96280   515.22312     -920.51221      272.73341      4348.2863    
     96290   506.28054     -920.09398      19.222978      4350.4529    
     96300   532.73474     -920.59383     -216.4743       4352.5921    
     96310   579.89953     -921.59739     -308.21815      4354.6369    
     96320   598.63706     -921.76749     -363.19482      4356.5568    
     96330   601.11856     -921.49174     -673.36798      4358.3298    
     96340   593.69486     -920.97396     -1239.0178      4359.8597    
     96350   568.96739     -920.02531     -1655.4238      4360.9854    
     96360   563.2891      -919.65204     -1852.7791      4361.5834    
     96370   557.91881     -919.32102     -1809.71        4361.6002    
     96380   580.63813     -919.79851     -1603.1188      4361.0564    
     96390   601.38642     -920.24382     -1237.1936      4360.0274    
     96400   610.28905     -920.38772     -906.80097      4358.6288    
     96410   602.00762     -920.07731     -518.17173      4356.9744    
     96420   590.05983     -919.67904     -159.31471      4355.1873    
     96430   593.5419      -919.71523      0.56889094     4353.3769    
     96440   568.16086     -918.9484       320.31343      4351.6033    
     96450   554.99851     -918.5121       1001.7973      4349.9721    
     96460   599.60044     -919.66259      1517.1025      4348.6791    
     96470   669.09777     -921.50387      1641.6203      4347.8748    
     96480   610.77642     -919.81973      1788.0746      4347.6041    
     96490   573.65383     -918.74265      1706.2867      4347.8968    
     96500   606.90222     -919.61353      1443.5672      4348.7213    
     96510   613.61355     -919.74403      1247.7667      4349.9984    
     96520   608.81071     -919.56131      735.09592      4351.6485    
     96530   613.55566     -919.64916      138.6764       4353.5145    
     96540   609.78332     -919.50505     -243.92012      4355.4149    
     96550   591.29305     -918.95527     -473.87572      4357.2272    
     96560   598.81904     -919.12559     -842.78345      4358.8714    
     96570   602.62352     -919.18837     -1153.9665      4360.2409    
     96580   601.00061     -919.09953     -1468.2415      4361.2363    
     96590   615.62669     -919.46178     -1522.1154      4361.7713    
     96600   631.15052     -919.85604     -1344.6542      4361.8314    
     96610   619.70769     -919.51322     -1171.1207      4361.4735    
     96620   621.98207     -919.56605     -1158.08        4360.7497    
     96630   601.98455     -919.00853     -1088.9644      4359.6753    
     96640   594.9628      -918.81517     -889.66945      4358.2769    
     96650   601.83978     -919.00531     -463.38751      4356.6247    
     96660   607.67627     -919.16851      9.9951366      4354.8505    
     96670   587.13958     -918.59657      481.33813      4353.1017    
     96680   634.26051     -919.90763      783.90843      4351.52      
     96690   635.00954     -919.9436       1326.7234      4350.2142    
     96700   609.40678     -919.26719      1802.8141      4349.3421    
     96710   635.03367     -920.03229      1555.1971      4349.0298    
     96720   629.57884     -919.96019      1151.0907      4349.2107    
     96730   569.02571     -918.3718       1095.95        4349.7683    
     96740   590.76499     -919.06743      838.12357      4350.6653    
     96750   636.06667     -920.43557      359.15935      4351.8194    
     96760   575.53861     -918.87891      80.833252      4353.0923    
     96770   564.94728     -918.70691     -283.16861      4354.3832    
     96780   595.8981      -919.68921     -517.28187      4355.5874    
     96790   587.99183     -919.59857     -638.46167      4356.6294    
     96800   583.51808     -919.60421     -775.94487      4357.4686    
     96810   617.69491     -920.69707     -838.18756      4358.0638    
     96820   596.54023     -920.26614     -537.43319      4358.4078    
     96830   606.41952     -920.70748     -519.84135      4358.5781    
     96840   629.83128     -921.55035     -950.96488      4358.5753    
     96850   565.44364     -919.96091     -1101.1851      4358.2877    
     96860   539.96147     -919.42737     -1156.72        4357.6608    
     96870   565.56252     -920.29353     -1160.9275      4356.6787    
     96880   550.97502     -920.02303     -727.06014      4355.3553    
     96890   552.28214     -920.16934     -367.79242      4353.8125    
     96900   579.98579     -921.03296     -293.31558      4352.1584    
     96910   552.74243     -920.35478      224.58865      4350.4409    
     96920   536.96581     -919.96858      777.46564      4348.8102    
     96930   580.4783      -921.2081       864.29662      4347.422     
     96940   556.90004     -920.56586      1278.1872      4346.3297    
     96950   535.96634     -919.97491      1804.6694      4345.6526    
     96960   603.4739      -921.81622      2021.2301      4345.5427    
     96970   621.19633     -922.26357      2070.8907      4346.0714    
     96980   576.47219     -920.97933      1793.7436      4347.2472    
     96990   575.24457     -920.89459      1001.0529      4348.9745    
     97000   552.55395     -920.18813      128.44334      4351.0157    
     97010   524.4222      -919.29541     -430.16126      4353.1043    
     97020   567.77672     -920.33522     -793.18128      4355.0582    
     97030   584.40696     -920.56764     -983.34357      4356.7677    
     97040   561.03875     -919.64864     -1145.0568      4358.1693    
     97050   602.83351     -920.49597     -1410.728       4359.2054    
     97060   598.7653      -920.0327      -1321.9393      4359.808     
     97070   558.01005     -918.56791     -1145.9333      4359.9982    
     97080   578.15405     -918.81078     -1175.1975      4359.8245    
     97090   633.0734      -920.02844     -1070.8247      4359.2876    
     97100   620.31586     -919.41489     -478.86432      4358.4346    
     97110   624.81542     -919.34601      40.760886      4357.4356    
     97120   674.92371     -920.59219      209.11068      4356.4478    
     97130   644.62248     -919.65951      144.23492      4355.5304    
     97140   609.46814     -918.6364      -29.374692      4354.6645    
     97150   599.82896     -918.33647      150.06129      4353.808     
     97160   621.17722     -918.90274      439.33121      4353.0111    
     97170   641.0403      -919.44297      317.41124      4352.3454    
     97180   600.9515      -918.33344      258.49894      4351.7912    
     97190   588.25732     -917.98928      415.55081      4351.3327    
     97200   605.48177     -918.47157      586.83657      4351.0107    
     97210   609.93063     -918.60134      798.36433      4350.8817    
     97220   591.42104     -918.09459      966.34166      4351.0112    
     97230   625.41571     -919.04843      839.67424      4351.4405    
     97240   666.79576     -920.22411      843.16929      4352.1445    
     97250   656.38427     -919.99773      916.57614      4353.1243    
     97260   638.94423     -919.60974      632.11022      4354.3897    
     97270   629.30237     -919.4638       63.602242      4355.8529    
     97280   606.93496     -918.97836     -597.48822      4357.3391    
     97290   589.49649     -918.63301     -1264.3438      4358.6408    
     97300   593.42682     -918.87741     -1566.1171      4359.5575    
     97310   606.22003     -919.37367     -1486.2313      4359.9937    
     97320   586.80125     -918.97273     -1221.0756      4359.9694    
     97330   622.50747     -920.11039     -1085.1128      4359.5584    
     97340   619.87553     -920.19696     -816.96783      4358.8146    
     97350   609.41429     -920.07809     -627.97872      4357.8145    
     97360   586.79364     -919.62252     -577.4813       4356.619     
     97370   569.6042      -919.30451     -559.91972      4355.2452    
     97380   560.18825     -919.18324     -363.89645      4353.7044    
     97390   573.52384     -919.67196      166.10488      4352.0644    
     97400   595.81211     -920.4018       837.01756      4350.4861    
     97410   574.90765     -919.9201       1272.9541      4349.1713    
     97420   596.03161     -920.59967      1267.3192      4348.2509    
     97430   590.62318     -920.53843      1404.07        4347.741     
     97440   575.34853     -920.19401      1596.6962      4347.6819    
     97450   612.01421     -921.29004      1374.7744      4348.1193    
     97460   608.78224     -921.28406      1126.1524      4348.9984    
     97470   567.78061     -920.2294       874.40006      4350.2403    
     97480   562.41301     -920.15075      320.04562      4351.7574    
     97490   582.13206     -920.75814     -322.49353      4353.3821    
     97500   536.57452     -919.5359      -618.10082      4354.925     
     97510   539.1751      -919.6262      -1035.671       4356.275     
     97520   584.50345     -920.87876     -1386.4467      4357.3048    
     97530   552.1342      -919.95047     -1199.0678      4357.9195    
     97540   567.61794     -920.32741     -1125.9088      4358.1559    
     97550   614.03186     -921.52808     -1202.5745      4358.0361    
     97560   572.10017     -920.24423     -1004.6939      4357.5497    
     97570   544.22771     -919.31593     -917.90387      4356.7464    
     97580   584.13708     -920.19925     -957.07993      4355.6506    
     97590   565.80759     -919.38872     -172.29582      4354.2805    
     97600   585.99602     -919.59885      685.30447      4352.8604    
     97610   675.01462     -921.6616       1108.6149      4351.6493    
     97620   655.68205     -920.72841      1535.066       4350.794     
     97630   627.13139     -919.62541      1503.9372      4350.4159    
     97640   648.4961      -919.96151      1016.3143      4350.5063    
     97650   592.57051     -918.20125      640.98389      4350.9299    
     97660   564.90359     -917.2648       246.61454      4351.5631    
     97670   602.07936     -918.13319     -67.356149      4352.2842    
     97680   617.76894     -918.41165     -176.97271      4352.9995    
     97690   591.70221     -917.55061     -105.03809      4353.6731    
     97700   615.98286     -918.10354      3.8300408      4354.3207    
     97710   631.64008     -918.42643      162.83656      4354.9794    
     97720   637.95255     -918.51289      328.954        4355.7017    
     97730   674.05415     -919.45519      279.76906      4356.5293    
     97740   685.3993      -919.75218      165.31456      4357.4542    
     97750   679.21066     -919.61481     -67.202688      4358.4394    
     97760   662.225       -919.22505     -358.66121      4359.4136    
     97770   628.05215     -918.389       -973.40102      4360.2743    
     97780   606.37898     -917.91146     -1562.9107      4360.8371    
     97790   609.85474     -918.13782     -1857.1209      4360.9166    
     97800   600.5622      -918.01331     -1520.8612      4360.4296    
     97810   597.26838     -918.0532      -969.27077      4359.469     
     97820   638.94056     -919.34991     -609.13117      4358.1954    
     97830   665.46982     -920.2585      -320.56674      4356.7277    
     97840   610.37922     -918.92361      96.015424      4355.1643    
     97850   567.05046     -917.90199      301.91632      4353.6234    
     97860   597.51322     -918.9128       260.05177      4352.1704    
     97870   630.09906     -919.98898      414.28074      4350.8043    
     97880   592.17063     -919.1051       976.52265      4349.5819    
     97890   589.09915     -919.17433      1491.2094      4348.6674    
     97900   633.04295     -920.54682      1719.7404      4348.2189    
     97910   641.12808     -920.93842      1688.5182      4348.3107    
     97920   597.16779     -919.88492      1520.8681      4348.9405    
     97930   599.13009     -920.09193      922.36577      4350.0483    
     97940   606.2314      -920.4342       175.86137      4351.4572    
     97950   547.97774     -918.93388     -180.74918      4352.9493    
     97960   563.00169     -919.43613     -475.43365      4354.3981    
     97970   593.94852     -920.35894     -708.76757      4355.7127    
     97980   574.99819     -919.88078     -864.62693      4356.8193    
     97990   570.75026     -919.79484     -1042.7234      4357.6627    
     98000   586.1507      -920.23935     -1096.5515      4358.1886    
     98010   586.41343     -920.25297     -954.52501      4358.3811    
     98020   584.71571     -920.20461     -897.04115      4358.2738    
     98030   593.14872     -920.43186     -965.8191       4357.8821    
     98040   581.74794     -920.10214     -929.88053      4357.1899    
     98050   585.71222     -920.19384     -907.59838      4356.2005    
     98060   579.30394     -919.99025     -588.32605      4354.9324    
     98070   556.61396     -919.32291     -189.08521      4353.477     
     98080   587.11933     -920.12071      16.671036      4351.9481    
     98090   593.76355     -920.24517      625.65694      4350.4322    
     98100   598.21533     -920.30955      1304.5958      4349.1117    
     98110   627.87203     -921.07791      1561.6047      4348.1894    
     98120   625.3083      -920.96831      1499.7557      4347.7512    
     98130   548.64921     -918.80843      1404.7556      4347.7917    
     98140   564.05176     -919.19637      883.13635      4348.2707    
     98150   592.35385     -919.92351      350.13498      4349.0393    
     98160   565.79054     -919.1196       331.49818      4349.9459    
     98170   585.21787     -919.58704      430.86264      4350.9736    
     98180   610.72471     -920.21699      482.95751      4352.1511    
     98190   605.36515     -919.99564      397.46265      4353.4953    
     98200   620.74936     -920.3627      -158.16509      4354.971     
     98210   603.24944     -919.82842     -687.73956      4356.4167    
     98220   551.89299     -918.35671     -945.91949      4357.6708    
     98230   587.03541     -919.27818     -1243.721       4358.6401    
     98240   627.36874     -920.33772     -1310.7083      4359.235     
     98250   610.40557     -919.82014     -1002.4024      4359.4347    
     98260   607.45692     -919.7057      -833.2323       4359.319     
     98270   627.55303     -920.24326     -1022.2336      4358.9313    
     98280   596.68133     -919.37517     -1068.5191      4358.2274    
     98290   588.879       -919.15173     -1150.1533      4357.1797    
     98300   599.53615     -919.43905     -1063.4358      4355.7642    
     98310   579.39223     -918.86699     -346.07237      4354.0235    
     98320   592.24345     -919.20693      390.84386      4352.1596    
     98330   613.19839     -919.77039      906.98784      4350.4013    
     98340   601.22374     -919.42493      1185.4213      4348.9127    
     98350   588.20357     -919.05385      1413.3227      4347.7902    
     98360   589.19545     -919.06806      1622.3921      4347.1098    
     98370   608.87284     -919.59947      1828.7569      4346.9428    
     98380   636.71248     -920.36529      1848.6941      4347.3556    
     98390   655.45759     -920.90046      1613.3404      4348.3592    
     98400   633.53501     -920.33404      1221.0558      4349.8886    
     98410   579.69431     -918.88707      805.89274      4351.8327    
     98420   589.37528     -919.19569     -57.978971      4354.0478    
     98430   597.22674     -919.44372     -958.40292      4356.2811    
     98440   560.36722     -918.43929     -1510.2153      4358.251     
     98450   564.70269     -918.56163     -1670.9013      4359.78      
     98460   615.96511     -919.97435     -1720.5571      4360.8036    
     98470   608.45466     -919.75702     -1567.9512      4361.2997    
     98480   584.6839      -919.09039     -1412.2226      4361.3081    
     98490   635.15951     -920.48991     -1573.9113      4360.8605    
     98500   610.43538     -919.81011     -1254.945       4359.9246    
     98510   571.58372     -918.74134     -524.96314      4358.5946    
     98520   628.73078     -920.33497     -175.79363      4357.0743    
     98530   654.05434     -921.05917      30.806192      4355.48      
     98540   584.59626     -919.16877      454.58823      4353.8893    
     98550   598.28473     -919.59088      523.48413      4352.4164    
     98560   636.82379     -920.71148      439.0809       4351.0926    
     98570   574.48485     -919.04218      522.49301      4349.9032    
     98580   536.10696     -918.02747      428.10651      4348.8621    
     98590   574.08536     -919.11591      467.56962      4347.9491    
     98600   574.7962      -919.15144      1281.5984      4347.2019    
     98610   601.95248     -919.91503      1874.0978      4346.8492    
     98620   627.27482     -920.63181      1836.8763      4347.0751    
     98630   599.86051     -919.89711      1675.1071      4347.8924    
     98640   586.84831     -919.56975      1327.7257      4349.2557    
     98650   612.61821     -920.32534      697.16875      4351.0603    
     98660   599.4355      -920.00851      234.98904      4353.1278    
     98670   589.03561     -919.7781      -205.58134      4355.3078    
     98680   612.20292     -920.49025     -738.17365      4357.4598    
     98690   602.34863     -920.30137     -1044.2246      4359.4249    
     98700   575.71087     -919.65424     -1409.5251      4361.0915    
     98710   603.52847     -920.52785     -2187.9057      4362.3278    
     98720   575.979       -919.8727      -2649.831       4362.8982    
     98730   518.51996     -918.37091     -2394.1415      4362.6561    
     98740   557.6223      -919.52757     -2064.9193      4361.6499    
     98750   612.15752     -921.10348     -1557.0809      4359.9773    
     98760   590.95617     -920.57932     -782.51629      4357.7941    
     98770   576.71007     -920.24629     -365.38091      4355.3195    
     98780   585.47205     -920.54788     -60.582728      4352.6912    
     98790   549.34334     -919.58861      582.73919      4350.0166    
     98800   557.15913     -919.82897      1177.3352      4347.4872    
     98810   598.6688      -920.98818      1614.4063      4345.2907    
     98820   584.353       -920.58903      2328.1121      4343.5852    
     98830   570.02691     -920.18124      2958.8967      4342.5938    
     98840   620.98962     -921.57968      2945.2598      4342.512     
     98850   617.95695     -921.48327      2469.9109      4343.3583    
     98860   549.58842     -919.57469      1788.4661      4345.0049    
     98870   553.51596     -919.65839      1100.4333      4347.2555    
     98880   560.34557     -919.79095      671.06271      4349.9116    
     98890   574.16424     -920.09142      222.54145      4352.8357    
     98900   600.56354     -920.71671     -537.79668      4355.8804    
     98910   589.80641     -920.29515     -1220.6092      4358.8191    
     98920   567.73088     -919.54773     -1848.0772      4361.4292    
     98930   584.85884     -919.86883     -2421.8989      4363.5028    
     98940   594.55083     -919.96088     -2663.9266      4364.8542    
     98950   563.94912     -918.92351     -2622.6417      4365.3904    
     98960   589.17323     -919.42386     -2590.8605      4365.0981    
     98970   621.43531     -920.09875     -2170.7258      4363.9863    
     98980   620.34384     -919.85336     -1520.7809      4362.1699    
     98990   612.06428     -919.42609     -978.61398      4359.8366    
     99000   603.19966     -918.99765     -570.54353      4357.1511    
     99010   639.45139     -919.83345      3.9913027      4354.2464    
     99020   653.08156     -920.05882      1032.0964      4351.3111    
     99030   634.76335     -919.43215      1975.3935      4348.6563    
     99040   629.41426     -919.19462      2284.0797      4346.5721    
     99050   625.0359      -919.00712      2120.7874      4345.1698    
     99060   578.39865     -917.6584       1934.6714      4344.4238    
     99070   593.23009     -918.01734      1666.2038      4344.2823    
     99080   623.08489     -918.79077      1443.7305      4344.6758    
     99090   578.02812     -917.48783      1454.5121      4345.5506    
     99100   578.78053     -917.45581      1566.1464      4346.9126    
     99110   629.0921      -918.78939      1609.6195      4348.8017    
     99120   684.99094     -920.29033      1465.6116      4351.2408    
     99130   699.80987     -920.69841      928.6091       4354.1891    
     99140   643.12405     -919.17383      145.8936       4357.4909    
     99150   609.73555     -918.32194     -838.46095      4360.9032    
     99160   628.9057      -918.94292     -1853.9947      4364.116     
     99170   639.21816     -919.34307     -2540.1558      4366.809     
     99180   617.73264     -918.88805     -2973.0946      4368.7488    
     99190   618.71856     -919.0848      -3343.6804      4369.7762    
     99200   611.40038     -919.08134     -3513.4909      4369.7588    
     99210   600.56123     -919.00522     -3477.5058      4368.6229    
     99220   611.12948     -919.55464     -3154.0246      4366.3628    
     99230   591.25866     -919.28517     -2354.8171      4363.0727    
     99240   541.5273      -918.17512     -1331.8947      4358.9861    
     99250   562.98306     -919.01684     -345.86478      4354.4101    
     99260   618.65195     -920.81502      803.81151      4349.6618    
     99270   582.96568     -920.07043      1975.2237      4345.1011    
     99280   557.02913     -919.55849      2754.5127      4341.0904    
     99290   581.94959     -920.42639      3394.2424      4337.8935    
     99300   602.08585     -921.1387       4000.1835      4335.7265    
     99310   608.40347     -921.45325      4339.3225      4334.7875    
     99320   592.17426     -921.12272      4405.5062      4335.2066    
     99330   592.61128     -921.23415      3818.1913      4337.0119    
     99340   594.61401     -921.37026      2981.3578      4340.0565    
     99350   554.29214     -920.30657      1859.3331      4344.0942    
     99360   522.13397     -919.43306      465.78302      4348.7879    
     99370   537.36351     -919.83929     -870.68188      4353.7131    
     99380   526.43374     -919.48572     -1753.1567      4358.4586    
     99390   541.32748     -919.82465     -2380.6705      4362.7321    
     99400   607.80035     -921.57867     -3124.3482      4366.3099    
     99410   607.93257     -921.49296     -3526.1328      4368.9572    
     99420   564.94478     -920.22402     -3701.5175      4370.5249    
     99430   578.91721     -920.53791     -3970.291       4370.9278    
     99440   580.10531     -920.48978     -3886.3867      4370.0787    
     99450   566.60776     -920.03168     -3513.5139      4367.9844    
     99460   571.67892     -920.08073     -2718.5717      4364.755     
     99470   584.15393     -920.32367     -1617.3318      4360.6282    
     99480   577.04394     -920.011       -411.05407      4355.9432    
     99490   609.76229     -920.79784      541.14167      4351.0672    
     99500   602.11755     -920.46014      1584.0647      4346.3162    
     99510   552.20401     -918.95263      2601.9674      4342.0179    
     99520   570.31984     -919.32271      3437.7996      4338.4944    
     99530   641.76877     -921.15693      4039.953       4336.0145    
     99540   611.07443     -920.16304      4532.6006      4334.7873    
     99550   591.0648      -919.49201      4213.8693      4334.9577    
     99560   585.20144     -919.21636      3531.466       4336.4554    
     99570   550.64603     -918.13997      3138.0776      4339.1023    
     99580   588.39676     -919.05828      2432.0254      4342.7689    
     99590   634.47577     -920.19147      1417.4644      4347.2477    
     99600   617.99196     -919.59656      480.46769      4352.24      
     99610   601.14828     -919.00799     -360.8382       4357.4541    
     99620   643.53546     -920.06977     -1392.3137      4362.6143    
     99630   650.44402     -920.16093     -2559.8539      4367.3917    
     99640   617.20947     -919.16476     -3741.2817      4371.4101    
     99650   590.58444     -918.36742     -4769.4914      4374.2808    
     99660   582.62021     -918.08899     -5132.1393      4375.6737    
     99670   606.39171     -918.68892     -4710.0837      4375.4621    
     99680   644.48835     -919.69243     -4061.9202      4373.748     
     99690   633.84798     -919.36125     -3308.1744      4370.7251    
     99700   629.48918     -919.22651     -2591.3358      4366.6224    
     99710   647.87592     -919.74322     -1822.1492      4361.6655    
     99720   617.60437     -918.9289      -695.20043      4356.1084    
     99730   566.67236     -917.54493      657.37358      4350.3011    
     99740   582.95701     -918.01407      1859.2856      4344.661     
     99750   629.07978     -919.3072       2883.6377      4339.5679    
     99760   611.59577     -918.84428      4462.165       4335.3756    
     99770   617.16755     -919.03885      5513.4642      4332.5499    
     99780   667.951       -920.5307       5615.1588      4331.4146    
     99790   622.43886     -919.40682      5425.1739      4332.0377    
     99800   597.99042     -918.91431      4707.5759      4334.3628    
     99810   648.74374     -920.57501      3558.7869      4338.184     
     99820   610.3016      -919.82432      2353.7675      4343.1663    
     99830   566.95166     -918.95013      930.48215      4348.9344    
     99840   575.6593      -919.51574     -791.01376      4355.0445    
     99850   572.86544     -919.74155     -2267.9255      4360.9679    
     99860   569.12496     -919.90561     -3553.7998      4366.2256    
     99870   562.40063     -919.94769     -4454.2523      4370.4048    
     99880   530.01597     -919.22498     -4747.0272      4373.2117    
     99890   563.7866      -920.29582     -4748.7575      4374.5303    
     99900   622.31088     -922.04349     -4468.572       4374.3487    
     99910   606.23907     -921.71941     -3916.4561      4372.7489    
     99920   582.05752     -921.16231     -3519.8406      4369.8879    
     99930   572.15745     -920.98763     -3216.7262      4365.888     
     99940   528.70346     -919.85243     -2304.3797      4360.8659    
     99950   536.85172     -920.11196     -966.64189      4355.1032    
     99960   586.87821     -921.50516      378.73248      4349.0106    
     99970   543.16395     -920.26914      1939.35        4343.0249    
     99980   536.10565     -920.02508      3327.3058      4337.6273    
     99990   594.38771     -921.56718      4188.987       4333.2437    
    100000   567.93477     -920.74031      4794.2976      4330.1557    
Loop time of 13.1518 on 1 procs for 50000 steps with 216 atoms

Performance: 328.472 ns/day, 0.073 hours/ns, 3801.757 timesteps/s, 821.180 katom-step/s
99.0% CPU use with 1 MPI tasks x 1 OpenMP threads

MPI task timing breakdown:
Section |  min time  |  avg time  |  max time  |%varavg| %total
---------------------------------------------------------------
Pair    | 12.561     | 12.561     | 12.561     |   0.0 | 95.50
Neigh   | 0          | 0          | 0          |   0.0 |  0.00
Comm    | 0.14222    | 0.14222    | 0.14222    |   0.0 |  1.08
Output  | 0.053364   | 0.053364   | 0.053364   |   0.0 |  0.41
Modify  | 0.36008    | 0.36008    | 0.36008    |   0.0 |  2.74
Other   |            | 0.0356     |            |       |  0.27

Nlocal:            216 ave         216 max         216 min
Histogram: 1 0 0 0 0 0 0 0 0 0
Nghost:            950 ave         950 max         950 min
Histogram: 1 0 0 0 0 0 0 0 0 0
Neighs:              0 ave           0 max           0 min
Histogram: 1 0 0 0 0 0 0 0 0 0
FullNghs:         7596 ave        7596 max        7596 min
Histogram: 1 0 0 0 0 0 0 0 0 0

Total # of neighbors = 7596
Ave neighs/atom = 35.166667
Neighbor list builds = 0
Dangerous builds = 0

print "Lattice parameter simulation completed for Si at ${temperature} K."
Lattice parameter simulation completed for Si at 600 K.
Total wall time: 0:00:26
