LAMMPS (30 Mar 2026)
OMP_NUM_THREADS environment is not set. Defaulting to 1 thread.
  using 1 OpenMP thread(s) per MPI task

# ------------------ Initialization ------------------
units           metal
boundary        p p p
atom_style      atomic

# ------------------ Geometry Generation -------------
# Silicon diamond cubic lattice constant is 5.431 Angstroms

variable pwd_path getenv PWD

variable structure_file string ../structures/si_structure.txt

variable first_run_step equal ${steps}
variable first_run_step equal 50000

read_data ../structures/si_structure.txt
Reading data file ...
  orthogonal box = (0 0 0) to (16.29 16.29 16.29)
  1 by 1 by 1 MPI processor grid
  reading atoms ...
  216 atoms
  read_data CPU = 0.002 seconds

# ------------------ Interatomic Potential -----------------
# Using the standard Stillinger-Weber (SW) potential
pair_style      sw
pair_coeff      * * ../potentials/Si.sw Si
Reading sw potential file ../potentials/Si.sw with DATE: 2007-06-11


# ------------------ Compute -----------------
compute eng all pe/atom
compute eatoms all reduce sum c_eng
compute new all temp


# ------------------ Energy Minimization -------------
# Relax the structure to remove any initial overlapping/strain
thermo          10
thermo_style    custom step temp pe press vol

minimize 1.0e-6 1.0e-6 5000 10000
Neighbor list info ...
  update: every = 1 steps, delay = 0 steps, check = yes
  max neighbors/atom: 2000, page size: 100000
  master list distance cutoff = 5.77118
  ghost atom cutoff = 5.77118
  binsize = 2.88559, bins = 6 6 6
  1 neighbor lists, perpetual/occasional/extra = 1 0 0
  (1) pair sw, perpetual
      attributes: full, newton on
      pair build: full/bin/atomonly
      stencil: full/bin/3d
      bin: standard
Per MPI rank memory allocation (min/avg/max) = 4.343 | 4.343 | 4.343 Mbytes
   Step          Temp          PotEng         Press          Volume    
         0   0             -936.70522      532.56802      4322.7812    
         1   0             -936.70522      532.56802      4322.7812    
Loop time of 0.00072297 on 1 procs for 1 steps with 216 atoms

98.2% CPU use with 1 MPI tasks x 1 OpenMP threads

Minimization stats:
  Stopping criterion = quadratic factors are zero
  Energy initial, next-to-last, final = 
     -936.705223045316  -936.705223045316  -936.705223045316
  Force two-norm initial, final = 1.1685261e-17 1.1685261e-17
  Force max component initial, final = 8.6736205e-19 8.6736205e-19
  Final line search alpha, max atom move = 1 8.6736205e-19
  Iterations, force evaluations = 1 2

MPI task timing breakdown:
Section |  min time  |  avg time  |  max time  |%varavg| %total
---------------------------------------------------------------
Pair    | 0.00067685 | 0.00067685 | 0.00067685 |   0.0 | 93.62
Neigh   | 0          | 0          | 0          |   0.0 |  0.00
Comm    | 1.7543e-05 | 1.7543e-05 | 1.7543e-05 |   0.0 |  2.43
Output  | 0          | 0          | 0          |   0.0 |  0.00
Modify  | 0          | 0          | 0          |   0.0 |  0.00
Other   |            | 2.857e-05  |            |       |  3.95

Nlocal:            216 ave         216 max         216 min
Histogram: 1 0 0 0 0 0 0 0 0 0
Nghost:            950 ave         950 max         950 min
Histogram: 1 0 0 0 0 0 0 0 0 0
Neighs:              0 ave           0 max           0 min
Histogram: 1 0 0 0 0 0 0 0 0 0
FullNghs:         7344 ave        7344 max        7344 min
Histogram: 1 0 0 0 0 0 0 0 0 0

Total # of neighbors = 7344
Ave neighs/atom = 34
Neighbor list builds = 0
Dangerous builds = 0

# ------------------ Equilibration (NVT/NPT) ---------
reset_timestep  0
velocity all create ${temperature} 87287 loop geom
velocity all create 400 87287 loop geom

# ---------- Timestamp Details ----------
# Reference timestep for metal units with Silicon is typically 1-2 fs
timestep        0.001



# ---------- NPT Fix ----------

# Tdamp - 100*Timestep
# Pdamp - 1000*Timestep

fix 1 all npt temp ${temperature} ${temperature} 0.1 iso ${pressure} ${pressure} 1.0
fix 1 all npt temp 400 ${temperature} 0.1 iso ${pressure} ${pressure} 1.0
fix 1 all npt temp 400 400 0.1 iso ${pressure} ${pressure} 1.0
fix 1 all npt temp 400 400 0.1 iso 0.0 ${pressure} 1.0
fix 1 all npt temp 400 400 0.1 iso 0.0 0.0 1.0

# ---------- Dump Details ----------
variable dump_path string "../results/lattice_parameter/si_out_${temperature}.dat"
../results/lattice_parameter/si_out_400.dat

dump 1 all custom 5000 ${dump_path} mass type xs ys zs
dump 1 all custom 5000 ../results/lattice_parameter/si_out_400.dat mass type xs ys zs

dump_modify 1 sort id

# ---------- Equilibration ----------
run ${first_run_step}
run 50000
Per MPI rank memory allocation (min/avg/max) = 3.218 | 3.218 | 3.218 Mbytes
   Step          Temp          PotEng         Press          Volume    
         0   400           -936.70522      3279.3168      4322.7812    
        10   216.31912     -931.58388      3509.2687      4323.565     
        20   125.85292     -929.03737      2687.7881      4325.9497    
        30   245.87681     -932.26658      867.46655      4329.5538    
        40   154.93642     -929.55894      34.311594      4333.6198    
        50   118.12511     -928.42497     -724.78966      4337.7105    
        60   257.21948     -932.11477     -1857.6586      4341.4457    
        70   201.64063     -930.36949     -2003.3302      4344.3578    
        80   177.49942     -929.5703      -2074.5274      4346.3302    
        90   283.4306      -932.34039     -2524.0969      4347.3055    
       100   219.93616     -930.37047     -2223.864       4347.1269    
       110   191.79764     -929.43056     -1928.4098      4345.8971    
       120   271.84845     -931.44334     -1818.5901      4343.7463    
       130   210.2478      -929.49405     -801.74303      4340.7817    
       140   199.49055     -929.00818      193.50507      4337.4391    
       150   298.0093      -931.49371      660.0993       4334.1644    
       160   249.52474     -929.8654       1621.9523      4331.228     
       170   222.90353     -928.90723      2447.6838      4329.0501    
       180   307.98394     -931.00982      2542.1933      4327.9896    
       190   265.58442     -929.54456      2733.1007      4328.1335    
       200   226.55673     -928.23519      2516.9725      4329.5487    
       210   303.94498     -930.12873      1428.0764      4332.1138    
       220   285.43195     -929.31643      591.68722      4335.3742    
       230   231.75108     -927.58016     -13.121212      4338.9364    
       240   274.54005     -928.51824     -1004.2141      4342.4853    
       250   273.02136     -928.18732     -1613.9267      4345.5897    
       260   248.77403     -927.24891     -1698.1457      4347.9646    
       270   318.62763     -928.90586     -1907.0463      4349.5367    
       280   356.98134     -929.63404     -1960.3262      4350.219     
       290   293.44912     -927.57148     -1616.2275      4349.9973    
       300   313.40355     -927.8618      -1544.3694      4348.9988    
       310   351.75588     -928.62453     -1361.5251      4347.276     
       320   311.34555     -927.20982     -756.6145       4344.9294    
       330   306.84578     -926.81935     -220.00224      4342.2197    
       340   332.69611     -927.25016      504.72694      4339.4127    
       350   320.24523     -926.61019      1602.7124      4336.861     
       360   375.43769     -927.84451      2188.4778      4335.0412    
       370   427.51935     -928.96047      2270.5344      4334.232     
       380   344.78752     -926.37623      2404.1832      4334.5018    
       390   312.48529     -925.25135      2002.9033      4335.8874    
       400   369.1862      -926.56878      1125.9862      4338.207     
       410   361.22213     -926.06617      460.88355      4341.0839    
       420   348.45093     -925.4487      -261.8512       4344.1924    
       430   366.08166     -925.67047     -995.56226      4347.1925    
       440   349.5268      -924.94067     -1215.3238      4349.7627    
       450   403.21354     -926.16141     -1535.7615      4351.7651    
       460   434.78642     -926.748       -1791.2971      4353.0543    
       470   355.02578     -924.28792     -1502.6836      4353.5277    
       480   392.89243     -925.12247     -1260.5869      4353.29      
       490   476.36233     -927.19036     -1040.7113      4352.4558    
       500   416.57378     -925.31051     -519.01892      4351.1469    
       510   436.01453     -925.67998     -493.98158      4349.5696    
       520   484.64148     -926.87048     -588.93011      4347.7514    
       530   339.2005      -922.71174      97.624143      4345.6903    
       540   336.40229     -922.53272      527.87781      4343.659     
       550   489.84128     -926.64467      649.86616      4341.8582    
       560   408.22247     -924.23348      1555.0513      4340.4012    
       570   351.64286     -922.55932      2059.9374      4339.6619    
       580   517.5424      -927.04962      1480.9502      4339.8484    
       590   455.1265      -925.22308      1496.0936      4340.7741    
       600   326.62649     -921.60774      1595.18        4342.4246    
       610   460.53491     -925.27515      609.74039      4344.795     
       620   486.65217     -925.95124     -123.43967      4347.4898    
       630   380.03371     -922.9803      -362.07845      4350.1736    
       640   443.28725     -924.74166     -1104.8363      4352.6815    
       650   467.14619     -925.42783     -1624.6652      4354.6984    
       660   406.56182     -923.79595     -1823.4627      4355.9745    
       670   442.00564     -924.84998     -1957.5715      4356.3963    
       680   449.43091     -925.15262     -1637.5529      4355.9151    
       690   449.15128     -925.26798     -1372.1141      4354.6553    
       700   479.75845     -926.29341     -1511.2532      4352.72      
       710   341.65394     -922.63399     -965.67107      4350.0934    
       720   313.50018     -921.95936     -305.65685      4347.0003    
       730   477.2861      -926.62408      68.424321      4343.7315    
       740   435.60886     -925.62174      1244.1482      4340.5181    
       750   336.76928     -923.00367      2458.9294      4337.8815    
       760   463.72157     -926.65796      2593.9769      4336.3456    
       770   494.9352      -927.71773      2662.0788      4336.0316    
       780   376.13268     -924.62029      2749.7703      4336.985     
       790   385.91304     -925.06734      1802.597       4339.2051    
       800   393.26005     -925.44138      612.59075      4342.2962    
       810   364.62469     -924.7891      -307.85894      4345.7238    
       820   409.75278     -926.17859     -1186.4287      4349.0406    
       830   385.2498      -925.63151     -1676.7213      4351.847     
       840   347.61266     -924.69453     -2010.5815      4353.892     
       850   379.97021     -925.68276     -2341.2547      4355.0003    
       860   393.22521     -926.13459     -2226.5094      4355.027     
       870   385.0279      -925.98395     -1849.6738      4354.0092    
       880   405.34827     -926.62576     -1510.007       4352.1021    
       890   381.24252     -926.02931     -723.48938      4349.4858    
       900   381.26856     -926.09123      161.22939      4346.5115    
       910   426.48009     -927.40708      640.58573      4343.5749    
       920   419.36315     -927.28257      1020.4755      4340.9184    
       930   369.81221     -925.97973      1373.937       4338.727     
       940   343.71985     -925.31128      1366.442       4337.1548    
       950   310.70267     -924.41777      1329.0575      4336.2189    
       960   323.02262     -924.74836      1411.389       4335.911     
       970   370.65585     -926.02384      1593.2692      4336.2769    
       980   394.67291     -926.62082      1782.7212      4337.4062    
       990   380.17599     -926.14011      1783.7558      4339.3933    
      1000   411.47657     -926.92742      1077.0839      4342.225     
      1010   412.32901     -926.86391      48.535352      4345.597     
      1020   369.22033     -925.58479     -929.62114      4349.0436    
      1030   384.80225     -925.92858     -1864.9253      4352.0966    
      1040   411.24514     -926.56008     -2303.7015      4354.3246    
      1050   363.00414     -925.1172      -2125.2407      4355.513     
      1060   381.44092     -925.52468     -2015.5848      4355.7022    
      1070   449.93964     -927.30468     -2063.4555      4354.9271    
      1080   378.17234     -925.2         -1589.4857      4353.1877    
      1090   352.69853     -924.39598     -1136.6018      4350.6714    
      1100   430.96622     -926.45117     -828.26791      4347.5785    
      1110   382.53329     -924.97937      62.726655      4344.084     
      1120   325.82987     -923.29063      1163.6022      4340.5899    
      1130   431.15848     -926.07475      1767.5507      4337.5828    
      1140   458.37967     -926.66803      2379.4135      4335.3825    
      1150   389.58875     -924.63531      2797.3906      4334.2784    
      1160   360.93642     -923.73699      2693.8821      4334.4678    
      1170   391.07811     -924.45848      2364.1624      4335.9328    
      1180   447.20089     -925.88767      2037.0364      4338.5492    
      1190   470.21294     -926.41347      1514.2842      4342.1728    
      1200   432.8412      -925.30057      560.55892      4346.5674    
      1210   438.57516     -925.41468     -900.55939      4351.2852    
      1220   385.05598     -923.89347     -2006.2973      4355.6756    
      1230   361.67887     -923.20604     -2831.0561      4359.1967    
      1240   460.93932     -925.91545     -3561.9353      4361.4253    
      1250   470.22615     -926.14853     -3540.4052      4362.0201    
      1260   387.59864     -923.86303     -2888.8705      4360.9583    
      1270   447.6009      -925.55457     -2372.9169      4358.4891    
      1280   470.34038     -926.24154     -1616.0722      4354.8596    
      1290   362.76838     -923.32407     -579.7052       4350.418     
      1300   376.68048     -923.76907      25.765443      4345.6111    
      1310   396.9887      -924.38025      784.7763       4340.752     
      1320   380.55519     -923.96114      1800.2563      4336.2019    
      1330   408.11089     -924.76053      2820.3936      4332.4348    
      1340   399.39377     -924.55294      3818.9769      4329.9451    
      1350   418.85215     -925.13269      4269.1699      4329.2043    
      1360   488.1832      -927.13375      3950.7995      4330.4427    
      1370   413.65425     -925.17792      3726.987       4333.5955    
      1380   409.04023     -925.16798      2668.211       4338.5516    
      1390   516.08074     -928.30186      576.43902      4344.8391    
      1400   412.10028     -925.61617     -1021.2136      4351.5647    
      1410   308.73737     -922.88056     -2490.1063      4357.9532    
      1420   444.2162      -926.76503     -4513.7118      4363.2526    
      1430   408.76392     -925.92522     -5366.0359      4366.5472    
      1440   283.08441     -922.53448     -5223.699       4367.3693    
      1450   371.4603      -925.0608      -5174.8997      4365.6842    
      1460   418.62182     -926.44194     -4291.0373      4361.5155    
      1470   347.42593     -924.52624     -2340.4499      4355.2577    
      1480   383.32993     -925.56334     -433.49119      4347.7609    
      1490   422.79724     -926.68543      1462.593       4339.9258    
      1500   391.07676     -925.82359      3312.0636      4332.6506    
      1510   421.95249     -926.70404      4361.6833      4326.7814    
      1520   402.48158     -926.19744      5133.7173      4322.8619    
      1530   327.68628     -924.14774      5732.8243      4321.2928    
      1540   389.35302     -925.87636      5437.9443      4322.3671    
      1550   470.95669     -928.16618      4541.8635      4326.0152    
      1560   406.10976     -926.41578      3620.3915      4331.9048    
      1570   385.16624     -925.89176      1774.2119      4339.61      
      1580   401.80826     -926.39973     -623.27547      4348.3177    
      1590   365.35122     -925.41444     -2757.1892      4356.9416    
      1600   347.39305     -924.91791     -4826.9797      4364.4381    
      1610   365.80518     -925.40906     -6532.2426      4369.7886    
      1620   343.74888     -924.76235     -6981.2886      4372.1559    
      1630   319.8092      -924.05107     -6400.816       4371.2444    
      1640   364.4504      -925.22012     -5308.0212      4367.2461    
      1650   398.03774     -926.04788     -3431.8869      4360.6517    
      1660   419.39136     -926.51689     -1045.1136      4352.3131    
      1670   448.61262     -927.19609      1269.6158      4343.3249    
      1680   457.13807     -927.31112      3320.4152      4334.7776    
      1690   444.18035     -926.85875      4790.3639      4327.6384    
      1700   418.98906     -926.09871      5341.2568      4322.6046    
      1710   355.59652     -924.29528      5417.596       4319.9876    
      1720   312.12761     -923.03847      5326.7505      4319.8776    
      1730   364.53759     -924.41966      4767.2372      4322.2628    
      1740   392.07935     -925.07714      4192.0828      4326.9567    
      1750   397.76879     -925.12038      3413.5828      4333.7336    
      1760   484.38154     -927.40542      1527.2397      4342.2344    
      1770   508.31623     -927.97119     -887.62767      4351.63      
      1780   371.33077     -924.1135      -2995.9266      4360.8228    
      1790   350.94577     -923.49501     -5387.4848      4368.7544    
      1800   406.05413     -924.95037     -7326.3051      4374.2665    
      1810   320.62776     -922.49931     -7479.2117      4376.4261    
      1820   339.06858     -922.9343      -6618.3942      4375.0526    
      1830   512.11275     -927.62945     -5438.5966      4370.4688    
      1840   484.40097     -926.77215     -3275.9145      4363.2378    
      1850   390.4528      -924.12997     -980.54107      4354.3288    
      1860   457.69815     -925.97298      731.3704       4344.7904    
      1870   448.17174     -925.69311      2752.0347      4335.48      
      1880   380.68496     -923.8152       4617.9308      4327.3354    
      1890   415.78678     -924.79046      5722.6412      4321.2236    
      1900   411.36993     -924.67724      6491.9451      4317.7086    
      1910   406.53435     -924.57075      6806.372       4317.1815    
      1920   439.56657     -925.54554      6240.6649      4319.8166    
      1930   395.56339     -924.40428      5090.4709      4325.4253    
      1940   415.0195      -925.03798      3081.9489      4333.5091    
      1950   448.29103     -926.07901      728.7898       4343.1926    
      1960   374.99148     -924.16898     -1443.1324      4353.4123    
      1970   397.32673     -924.91009     -3877.5371      4363.1116    
      1980   433.56625     -926.07663     -6069.0059      4371.1239    
      1990   318.56021     -923.04386     -7062.2664      4376.3984    
      2000   358.5403      -924.2969      -7584.0195      4378.3624    
      2010   475.94039     -927.77282     -7449.04        4376.7196    
      2020   378.55391     -925.32522     -5822.0414      4371.5319    
      2030   350.14967     -924.74225     -3654.3871      4363.5027    
      2040   455.38036     -927.87303     -1478.8459      4353.6318    
      2050   434.61435     -927.50754      978.20528      4342.9685    
      2060   399.27785     -926.69516      3048.2204      4332.6479    
      2070   392.64009     -926.64126      4596.133       4323.6467    
      2080   319.90536     -924.69494      5970.1808      4316.7184    
      2090   308.48983     -924.40177      6725.061       4312.4957    
      2100   327.15316     -924.91446      7090.3976      4311.3659    
      2110   332.67473     -925.04178      7089.1003      4313.5346    
      2120   434.06892     -927.82695      6031.7286      4319.0143    
      2130   447.65067     -928.18672      4326.8989      4327.3827    
      2140   333.88602     -925.0224       2190.9182      4337.8975    
      2150   387.67077     -926.48996     -1025.522       4349.5454    
      2160   419.13357     -927.29921     -3988.2252      4360.8713    
      2170   335.72881     -924.9088      -5898.046       4370.475     
      2180   368.51268     -925.73723     -7418.7738      4377.3679    
      2190   411.70187     -926.84292     -8267.6419      4380.7869    
      2200   358.5919      -925.29068     -8024.9449      4380.3017    
      2210   382.28197     -925.88787     -7276.5614      4375.9652    
      2220   389.04303     -926.00928     -5678.8283      4368.1364    
      2230   319.282       -923.99924     -3099.9596      4357.584     
      2240   381.7024      -925.62947     -320.31251      4345.5057    
      2250   448.56204     -927.32788      2733.4977      4333.2338    
      2260   364.22248     -924.82501      5958.9729      4322.2143    
      2270   409.53223     -925.93635      7845.5159      4313.8884    
      2280   493.22852     -928.11924      8570.6598      4309.1482    
      2290   397.71156     -925.38836      8758.2732      4308.3684    
      2300   317.45186     -923.12406      7771.6901      4311.6262    
      2310   390.35304     -925.10636      5696.0682      4318.4962    
      2320   406.32818     -925.48335      3786.0969      4328.1092    
      2330   384.51871     -924.81142      1597.3366      4339.5766    
      2340   421.05324     -925.74464     -1352.7927      4351.8618    
      2350   416.58161     -925.52431     -4179.2993      4363.6057    
      2360   369.85213     -924.13043     -6356.9663      4373.4624    
      2370   407.4434      -925.0804      -8030.2454      4380.3458    
      2380   436.21617     -925.79712     -8654.0667      4383.4472    
      2390   407.03383     -924.94396     -8234.9095      4382.4392    
      2400   387.56904     -924.38898     -7075.3753      4377.4987    
      2410   407.87615     -924.94521     -5117.9172      4369.1894    
      2420   436.38776     -925.72619     -2538.8275      4358.4544    
      2430   450.77048     -926.11817      206.98091      4346.5197    
      2440   427.87095     -925.48209      2856.7227      4334.6868    
      2450   404.04644     -924.81923      5255.4241      4324.2018    
      2460   428.71609     -925.50962      6910.758       4316.1559    
      2470   404.61991     -924.86559      7999.9663      4311.3185    
      2480   354.76609     -923.5167       8264.7707      4310.1771    
      2490   404.05302     -924.9302       7252.1352      4312.8352    
      2500   421.86693     -925.48503      5676.8714      4318.8671    
      2510   353.37457     -923.64443      3973.5055      4327.5773    
      2520   388.23137     -924.65538      1699.6386      4338.1663    
      2530   475.91807     -927.12666     -953.69829      4349.5823    
      2540   404.58815     -925.1979      -3143.1726      4360.6103    
      2550   342.42235     -923.51321     -5139.249       4370.1814    
      2560   441.35971     -926.30924     -7037.1432      4377.3168    
      2570   456.76295     -926.84068     -7914.1425      4381.1334    
      2580   390.34881     -925.1591      -7850.5823      4381.1942    
      2590   412.30619     -925.98117     -7346.9769      4377.505     
      2600   422.1743      -926.53511     -5986.6111      4370.3398    
      2610   355.65374     -924.96877     -3607.4566      4360.3794    
      2620   348.87127     -925.009       -953.10099      4348.7469    
      2630   373.53565     -925.87957      1671.4313      4336.708     
      2640   363.19479     -925.72762      4219.3561      4325.5042    
      2650   370.31026     -926.01464      6359.6517      4316.3053    
      2660   377.33631     -926.27596      7902.1412      4310.0828    
      2670   362.94503     -925.92852      8645.533       4307.5239    
      2680   376.66689     -926.36089      8307.5038      4308.9452    
      2690   379.38527     -926.48737      7063.2927      4314.1985    
      2700   387.47056     -926.75786      4814.2781      4322.7086    
      2710   380.00321     -926.58036      2026.8269      4333.4588    
      2720   310.42077     -924.6415      -464.32855      4345.1871    
      2730   327.61981     -925.06721     -2820.7102      4356.708     
      2740   446.93519     -928.28281     -5118.7737      4366.8889    
      2750   431.73702     -927.76211     -6555.9949      4374.6605    
      2760   358.77496     -925.66861     -7363.5428      4379.3139    
      2770   401.31388     -926.79682     -8065.5817      4380.4304    
      2780   372.78716     -925.95782     -7804.8012      4377.724     
      2790   322.17032     -924.51503     -6531.284       4371.3382    
      2800   378.79762     -926.03183     -4577.4101      4361.8953    
      2810   386.06807     -926.14018     -1709.4201      4350.374     
      2820   356.75883     -925.21024      1508.2848      4338.1361    
      2830   409.23135     -926.52317      4208.5692      4326.6683    
      2840   383.72771     -925.65374      6484.7581      4317.233     
      2850   330.89228     -924.0433       7912.0815      4310.8471    
      2860   409.38619     -926.08607      8072.212       4308.1188    
      2870   398.98406     -925.66924      8001.5586      4309.1473    
      2880   346.82699     -924.136        7434.8671      4313.8747    
      2890   432.18116     -926.43465      5569.8854      4322.0006    
      2900   456.15023     -927.03261      3109.416       4332.6968    
      2910   388.00612     -925.09757      525.15487      4344.8369    
      2920   398.86997     -925.35203     -2321.8809      4357.1937    
      2930   441.0298      -926.46119     -4948.771       4368.4314    
      2940   434.45653     -926.22957     -6907.1504      4377.3073    
      2950   428.35831     -926.04214     -8274.6194      4382.8702    
      2960   394.98129     -925.12515     -8814.2881      4384.4786    
      2970   376.50444     -924.64038     -8552.3854      4381.8867    
      2980   379.99179     -924.77635     -7483.051       4375.251     
      2990   312.52167     -922.92924     -5335.1287      4365.1418    
      3000   292.95621     -922.37389     -2537.2648      4352.6082    
      3010   394.82567     -925.12582      805.5531       4339.0133    
      3020   457.79075     -926.74035      4606.2659      4325.9495    
      3030   431.46955     -925.8805       7984.128       4315.1503    
      3040   464.77108     -926.71353      9766.2064      4308.0971    
      3050   494.68118     -927.51758      10121.292      4305.574     
      3060   405.52091     -925.08646      9526.4737      4307.7249    
      3070   374.79245     -924.30386      7601.0443      4314.2297    
      3080   424.44004     -925.75459      4754.0521      4324.2049    
      3090   395.84124     -925.02153      1864.4532      4336.3643    
      3100   373.84921     -924.44593     -1079.9067      4349.3471    
      3110   424.1993      -925.85357     -3878.3939      4361.7673    
      3120   423.7586      -925.84854     -6166.0991      4372.3024    
      3130   353.04477     -923.89232     -7784.4317      4379.8643    
      3140   367.39763     -924.29652     -8904.5637      4383.6713    
      3150   415.66501     -925.65348     -9040.5353      4383.2281    
      3160   397.02353     -925.17712     -7879.4246      4378.5189    
      3170   358.14725     -924.14504     -5632.2555      4370.1409    
      3180   394.04411     -925.17044     -2942.3192      4359.1906    
      3190   453.4362      -926.82923     -255.85167      4346.9714    
      3200   431.80185     -926.24295      2464.871       4334.7779    
      3210   369.87031     -924.53417      5147.4238      4323.8846    
      3220   411.6822      -925.70599      6997.8634      4315.4802    
      3230   414.7024      -925.8231       8203.2482      4310.3933    
      3240   359.51873     -924.34807      8847.2131      4309.1412    
      3250   424.1017      -926.22976      8121.6769      4311.9461    
      3260   483.03313     -928.02109      6316.429       4318.4603    
      3270   383.95486     -925.47354      4096.3454      4327.8634    
      3280   329.79548     -924.1446       1126.5183      4339.0961    
      3290   359.19544     -925.10127     -2203.3135      4350.7734    
      3300   352.01088     -925.01053     -4528.885       4361.3796    
      3310   355.15607     -925.17899     -5911.2039      4369.8035    
      3320   413.34941     -926.87909     -6961.7739      4375.3615    
      3330   407.25025     -926.81546     -7262.7884      4377.5884    
      3340   369.02633     -925.86672     -6916.3658      4376.3593    
      3350   384.3333      -926.40575     -6239.5424      4371.8594    
      3360   379.12907     -926.37421     -4839.8306      4364.4709    
      3370   332.20481     -925.15714     -2684.5036      4354.9039    
      3380   348.8376      -925.66391     -293.47456      4344.1907    
      3390   391.705       -926.86393      2253.2004      4333.4751    
      3400   369.2408      -926.22153      4810.7275      4323.9465    
      3410   377.99539     -926.43036      6596.6691      4316.7388    
      3420   413.06681     -927.36813      7607.2616      4312.6461    
      3430   385.75631     -926.58631      7959.3903      4312.1024    
      3440   378.04417     -926.36188      7105.2114      4315.2108    
      3450   405.80694     -927.12309      5223.2821      4321.5589    
      3460   355.20919     -925.6965       3082.8208      4330.2932    
      3470   332.73113     -925.02439      462.73064      4340.395     
      3480   369.77905     -925.95277     -2328.1393      4350.6396    
      3490   316.51543     -924.32564     -4135.2225      4359.7601    
      3500   318.36276     -924.20413     -5319.2709      4366.8798    
      3510   437.88405     -927.28706     -6143.7036      4371.4296    
      3520   451.4149      -927.40605     -5974.1028      4373.0633    
      3530   401.035       -925.82295     -5309.5908      4371.8632    
      3540   434.85173     -926.62519     -4889.1393      4368.1379    
      3550   397.35517     -925.47797     -3936.2943      4362.1558    
      3560   357.06417     -924.28197     -2440.2297      4354.3966    
      3570   396.29833     -925.29098     -659.65256      4345.5819    
      3580   377.29988     -924.67191      1692.5808      4336.5819    
      3590   356.78677     -924.00608      4069.7774      4328.48      
      3600   461.58018     -926.81566      5509.6789      4322.3267    
      3610   460.32708     -926.70767      6535.8002      4318.7927    
      3620   380.94642     -924.47687      6871.2322      4318.3122    
      3630   447.85171     -926.33546      5682.8828      4320.9717    
      3640   431.35686     -925.90118      4147.8219      4326.2541    
      3650   292.10498     -922.05364      2696.0756      4333.4501    
      3660   352.38757     -923.71507      545.76979      4341.8358    
      3670   475.34518     -927.0781      -1567.7146      4350.4305    
      3680   398.37057     -924.89796     -2723.5338      4358.2789    
      3690   361.67944     -923.84529     -3877.8751      4364.7873    
      3700   472.71449     -926.89111     -5253.2452      4369.399     
      3710   467.33878     -926.73522     -5643.8504      4371.526     
      3720   396.16526     -924.79366     -5340.0375      4370.9821    
      3730   418.46894     -925.46626     -5022.9831      4367.9027    
      3740   411.71425     -925.3464      -4140.4194      4362.4914    
      3750   346.84351     -923.60646     -2526.0713      4355.203     
      3760   350.96551     -923.7545      -713.24899      4346.8006    
      3770   409.75985     -925.39322      1296.8345      4338.1583    
      3780   424.65613     -925.80446      3377.422       4330.2159    
      3790   395.73144     -925.00186      5258.4237      4323.9271    
      3800   421.72787     -925.73469      6373.8462      4320.1199    
      3810   449.83877     -926.55459      6679.5399      4319.2863    
      3820   429.70385     -926.07759      6168.9465      4321.5436    
      3830   413.36205     -925.73704      4699.9855      4326.6305    
      3840   427.07779     -926.25616      2365.2476      4333.8526    
      3850   374.17313     -924.9312       65.709271      4342.1527    
      3860   314.35938     -923.37862     -1789.3952      4350.4599    
      3870   346.24628     -924.33954     -3194.6587      4357.897     
      3880   406.81046     -926.09015     -4346.8073      4363.7891    
      3890   422.73079     -926.62008     -5264.197       4367.5922    
      3900   385.61347     -925.69867     -5593.2072      4368.8949    
      3910   350.34752     -924.82761     -5284.2906      4367.5572    
      3920   376.62418     -925.66226     -4545.6117      4363.7377    
      3930   398.23267     -926.37275     -3209.5346      4357.82      
      3940   386.69881     -926.16187     -1202.9883      4350.4672    
      3950   419.44593     -927.18104      815.55885      4342.6169    
      3960   449.32964     -928.15089      2452.4617      4335.208     
      3970   365.93378     -925.98606      3834.063       4329.0115    
      3980   330.37323     -925.11969      4407.4573      4324.6297    
      3990   369.01289     -926.30585      4347.1136      4322.3167    
      4000   332.27698     -925.38364      4440.2377      4322.0606    
      4010   327.7474      -925.32743      4365.7691      4323.8756    
      4020   384.47301     -926.95956      3649.1477      4327.6947    
      4030   367.17639     -926.52156      2592.6394      4333.1949    
      4040   370.20404     -926.63366      949.82172      4339.8636    
      4050   379.83134     -926.90861     -976.51046      4346.9408    
      4060   340.98758     -925.81358     -2578.9492      4353.5413    
      4070   334.95067     -925.60041     -3685.1393      4358.9134    
      4080   383.04114     -926.85429     -4374.4401      4362.5287    
      4090   379.23655     -926.63366     -4464.7838      4364.0763    
      4100   375.83946     -926.4033      -4177.6097      4363.5123    
      4110   400.39789     -926.9128      -3566.6297      4360.9853    
      4120   406.76028     -926.88114     -2595.5329      4356.8041    
      4130   394.76024     -926.32303     -1563.3354      4351.4308    
      4140   375.93408     -925.57031     -420.70821      4345.3663    
      4150   364.29609     -925.01789      1089.7589      4339.1691    
      4160   385.55214     -925.37976      2554.7048      4333.5304    
      4170   393.48982     -925.38665      3647.4623      4329.1188    
      4180   387.5281      -925.04713      4257.6388      4326.4296    
      4190   407.44169     -925.46419      4342.6975      4325.7297    
      4200   396.65678     -925.06114      4125.8274      4327.0588    
      4210   381.70991     -924.57007      3447.5732      4330.2984    
      4220   412.36621     -925.35631      2278.922       4335.1251    
      4230   416.69883     -925.41985      997.29908      4341.0047    
      4240   381.19155     -924.38539     -188.50076      4347.3441    
      4250   422.59487     -925.48668     -1728.7754      4353.5595    
      4260   452.04045     -926.26205     -3179.5029      4358.9413    
      4270   378.14715     -924.18552     -3897.5281      4362.8304    
      4280   392.79793     -924.57319     -4313.8935      4364.8654    
      4290   476.7107      -926.8921      -4411.0693      4364.8562    
      4300   443.53714     -925.99813     -3674.6717      4362.7905    
      4310   370.03848     -924.00032     -2450.054       4359.0173    
      4320   435.74413     -925.87104     -1579.1846      4354.0904    
      4330   448.29632     -926.2827      -651.94799      4348.4547    
      4340   375.08767     -924.32215      477.38294      4342.5604    
      4350   367.88278     -924.18019      1377.6578      4336.9203    
      4360   391.57374     -924.8837       2307.8921      4331.9666    
      4370   369.53806     -924.30698      3449.5919      4328.1375    
      4380   352.33998     -923.84962      4309.2215      4325.936     
      4390   390.25461     -924.90934      4535.0162      4325.7395    
      4400   449.98059     -926.57976      4150.2981      4327.6449    
      4410   433.45878     -926.1593       3566.3805      4331.4874    
      4420   389.59711     -924.996        2541.3247      4336.9803    
      4430   423.36087     -925.99113      834.57702      4343.6304    
      4440   456.85464     -926.99474     -955.25317      4350.6601    
      4450   421.0821      -926.09857     -2420.0007      4357.2403    
      4460   404.60904     -925.74931     -3825.6472      4362.6605    
      4470   397.77625     -925.6779      -5038.1745      4366.2558    
      4480   352.95029     -924.54495     -5520.2291      4367.4752    
      4490   352.88292     -924.64034     -5270.5418      4366.0923    
      4500   385.87776     -925.64715     -4279.447       4362.2426    
      4510   393.74659     -925.95337     -2785.9262      4356.4036    
      4520   377.01669     -925.56689     -1014.3897      4349.2938    
      4530   369.6706      -925.42151      592.99174      4341.7425    
      4540   390.50256     -926.04279      1925.6011      4334.5082    
      4550   375.38353     -925.65637      3213.9281      4328.2215    
      4560   320.08546     -924.1313       4612.8196      4323.4843    
      4570   368.32266     -925.4581       5548.3201      4320.9112    
      4580   447.43523     -927.63412      5768.3033      4320.9134    
      4590   409.77132     -926.58504      5518.0084      4323.5981    
      4600   409.55764     -926.59599      4378.6823      4328.824     
      4610   450.07727     -927.75039      2443.2023      4336.0626    
      4620   392.55637     -926.19262      288.42809      4344.4334    
      4630   351.64956     -925.08325     -2018.273       4352.9211    
      4640   390.652       -926.17446     -4177.7464      4360.4407    
      4650   357.91671     -925.25709     -5457.8271      4365.9972    
      4660   348.12237     -924.96713     -6090.8577      4368.9646    
      4670   358.94896     -925.23285     -6089.3033      4369.0459    
      4680   320.31064     -924.10017     -5276.7262      4366.2641    
      4690   365.18768     -925.25036     -3986.1644      4361.0064    
      4700   434.05719     -927.0019      -2086.5223      4353.9149    
      4710   415.10945     -926.28447      325.00323      4345.908     
      4720   429.80077     -926.50115      2190.2296      4338.0854    
      4730   439.21968     -926.56933      3448.3558      4331.3207    
      4740   380.34483     -924.7654       4528.7672      4326.2132    
      4750   394.22281     -925.00093      4997.4703      4323.2293    
      4760   404.37668     -925.13151      5076.2789      4322.5843    
      4770   373.08541     -924.12818      4828.0609      4324.3069    
      4780   431.07164     -925.61481      3946.0856      4328.2576    
      4790   426.69465     -925.37586      2998.7405      4334.0496    
      4800   395.58906     -924.42212      1737.0507      4341.2303    
      4810   493.42727     -927.05972     -499.04609      4349.1727    
      4820   456.40357     -925.97999     -2565.5858      4356.8749    
      4830   317.25063     -922.08548     -4145.5055      4363.3647    
      4840   374.37503     -923.62971     -5523.4199      4367.8689    
      4850   432.1182      -925.1738      -5810.8035      4369.7748    
      4860   386.93288     -923.87378     -5124.4128      4368.949     
      4870   455.74198     -925.75869     -4426.0183      4365.6858    
      4880   480.20706     -926.44019     -3142.9301      4360.3667    
      4890   379.82637     -923.68238     -1271.1656      4353.6194    
      4900   397.19643     -924.19021      135.28075      4346.2936    
      4910   450.76187     -925.70391      1403.2242      4339.0764    
      4920   393.22332     -924.13976      3057.1953      4332.5877    
      4930   395.8167      -924.24547      4366.3112      4327.5601    
      4940   446.83078     -925.70829      5165.7436      4324.5877    
      4950   447.5095      -925.80702      5500.7027      4324.034     
      4960   453.97907     -926.11423      4869.4419      4326.0183    
      4970   423.60694     -925.4371       3604.303       4330.2553    
      4980   375.91695     -924.27702      2050.4589      4336.165     
      4990   394.20259     -924.93767      152.32005      4343.0091    
      5000   376.2617      -924.58065     -1257.8749      4349.933     
      5010   342.09626     -923.73519     -2197.5936      4356.2682    
      5020   437.44303     -926.47659     -3596.3804      4361.5219    
      5030   471.20808     -927.54326     -4723.6624      4365.0654    
      5040   347.86892     -924.24801     -4890.9057      4366.3955    
      5050   340.99437     -924.14743     -4862.9374      4365.4007    
      5060   413.98104     -926.25654     -4474.3947      4362.1138    
      5070   363.89894     -924.93408     -2816.6618      4356.7803    
      5080   380.31859     -925.43297     -815.16621      4350.1595    
      5090   474.7539      -928.09424      786.34445      4343.1798    
      5100   437.23201     -927.10957      2316.0541      4336.6191    
      5110   367.81503     -925.23441      3417.6186      4331.1738    
      5120   378.12915     -925.55518      3831.4095      4327.3351    
      5130   375.63752     -925.50462      4089.3692      4325.3095    
      5140   352.19888     -924.85871      4101.562       4325.2009    
      5150   356.27724     -924.96178      3622.9457      4326.9948    
      5160   376.53082     -925.49909      2928.6892      4330.4749    
      5170   396.66581     -926.02561      2129.9753      4335.3196    
      5180   406.33032     -926.2614       894.68409      4341.1378    
      5190   403.60464     -926.15517     -570.40808      4347.3572    
      5200   401.31782     -926.06252     -1777.6587      4353.3065    
      5210   398.58711     -925.95784     -2739.4762      4358.4118    
      5220   409.72014     -926.24079     -3633.3869      4362.2087    
      5230   408.44447     -926.18764     -4437.5139      4364.2732    
      5240   366.67816     -925.01642     -4864.2066      4364.2395    
      5250   340.22175     -924.26468     -4588.0483      4361.9249    
      5260   355.75226     -924.6602      -3407.269       4357.4834    
      5270   384.78024     -925.40583     -1745.1899      4351.4738    
      5280   407.44124     -925.95823      7.3418479      4344.6804    
      5290   409.83509     -925.94311      1913.173       4337.9419    
      5300   407.69138     -925.80293      3598.1322      4332.1392    
      5310   455.18127     -927.05276      4391.1224      4328.0216    
      5320   431.05041     -926.34106      4603.7625      4325.9643    
      5330   364.22286     -924.4668       4358.9766      4326.058     
      5340   372.86126     -924.68615      3579.8265      4328.1726    
      5350   387.29633     -925.05221      2767.1874      4331.9616    
      5360   370.82365     -924.54803      2001.5493      4337.0472    
      5370   423.37176     -925.95014      801.75889      4343.0463    
      5380   443.63532     -926.45083     -591.1818       4349.4077    
      5390   416.51237     -925.65006     -2019.7714      4355.4789    
      5400   439.92246     -926.26829     -3572.4073      4360.5728    
      5410   385.30645     -924.73135     -4517.7239      4363.986     
      5420   318.82426     -922.86171     -4895.8704      4365.2655    
      5430   381.38592     -924.556       -4915.0269      4364.2264    
      5440   406.71358     -925.19015     -4027.479       4360.8964    
      5450   361.70206     -923.86054     -2262.5524      4355.7132    
      5460   434.12583     -925.76899     -554.27038      4349.4856    
      5470   499.20116     -927.44406      1009.0743      4343.0305    
      5480   444.18726     -925.81141      2587.072       4337.0959    
      5490   428.3055      -925.29529      3652.3413      4332.3929    
      5500   444.69366     -925.68555      4155.0985      4329.4094    
      5510   417.70023     -924.8873       4260.5278      4328.3769    
      5520   387.41172     -924.00841      3786.4305      4329.3262    
      5530   391.4658      -924.07472      2820.0361      4332.0317    
      5540   420.81142     -924.82586      1754.5379      4336.0548    
      5550   410.28928     -924.4574       858.26237      4340.9046    
      5560   374.34982     -923.37402     -19.553207      4346.1533    
      5570   419.82981     -924.52841     -1194.957       4351.37      
      5580   458.71218     -925.47495     -2113.1484      4356.0248    
      5590   422.67093     -924.35311     -2735.0399      4359.6827    
      5600   432.23527     -924.51561     -3416.6601      4362.0325    
      5610   459.25063     -925.17389     -3806.8373      4362.7672    
      5620   415.48214     -923.89222     -3473.0869      4361.7262    
      5630   422.45468     -924.03902     -2750.7405      4359.0601    
      5640   482.5901      -925.67601     -1779.9765      4355.1151    
      5650   458.31058     -925.00474     -453.97785      4350.3669    
      5660   420.71655     -923.99584      730.05605      4345.4258    
      5670   438.21996     -924.53696      1448.6687      4340.8388    
      5680   446.82283     -924.85765      2074.6314      4336.959     
      5690   430.94863     -924.53063      2701.4453      4334.078     
      5700   400.70781     -923.82128      3204.4385      4332.4783    
      5710   399.67706     -923.92631      3410.2593      4332.3832    
      5720   443.74181     -925.30423      2914.2782      4333.8651    
      5730   440.03681     -925.38839      2025.5077      4336.7026    
      5740   380.1905      -923.90851      1100.6649      4340.4921    
      5750   380.19346     -924.06115     -73.148027      4344.7858    
      5760   406.28874     -924.92615     -1166.3617      4349.0435    
      5770   378.78433     -924.28386     -1650.0955      4352.7719    
      5780   403.08647     -925.05977     -2000.8168      4355.7199    
      5790   488.24155     -927.54484     -2550.6689      4357.707     
      5800   455.77559     -926.80495     -2658.1202      4358.5043    
      5810   360.74855     -924.30892     -2473.5351      4358.0572    
      5820   392.62554     -925.3079      -2572.0244      4356.4269    
      5830   413.53442     -925.99589     -2182.4258      4353.6097    
      5840   375.49697     -925.02885     -1129.8544      4349.804     
      5850   410.64735     -926.07974     -98.885586      4345.4804    
      5860   424.34892     -926.53492      962.08477      4341.1344    
      5870   365.82871     -924.97299      2005.0765      4337.2653    
      5880   383.3734      -925.505        2376.1388      4334.3289    
      5890   416.18215     -926.45775      2387.4525      4332.5089    
      5900   352.93796     -924.73497      2616.5937      4331.8334    
      5910   342.1945      -924.45165      2486.9512      4332.3759    
      5920   370.42996     -925.22781      2026.5244      4334.0765    
      5930   357.64637     -924.84433      1586.9782      4336.7339    
      5940   373.30223     -925.23394      1041.4332      4340.1329    
      5950   431.92845     -926.80183      367.95705      4344.0174    
      5960   444.76903     -927.1047      -313.41941      4348.0759    
      5970   414.55762     -926.23413     -1042.5942      4351.9852    
      5980   413.49732     -926.18593     -1920.4173      4355.393     
      5990   422.62486     -926.42754     -2604.6265      4357.8991    
      6000   426.37106     -926.53497     -3006.6868      4359.1804    
      6010   394.7542      -925.67311     -3165.0901      4359.0468    
      6020   374.44926     -925.1282      -3218.6468      4357.4188    
      6030   343.95962     -924.28865     -2873.1293      4354.2882    
      6040   313.58404     -923.4245      -1872.0421      4349.8393    
      6050   366.5323      -924.83557     -609.70325      4344.5316    
      6060   408.7967      -925.9045       1024.6359      4338.9751    
      6070   383.44187     -925.0739       2797.8489      4333.9336    
      6080   415.56827     -925.82609      3906.5624      4330.1999    
      6090   464.33145     -927.02332      4387.0383      4328.2895    
      6100   423.78351     -925.75938      4508.1319      4328.4342    
      6110   399.96032     -924.98571      3773.0679      4330.6632    
      6120   429.98947     -925.70368      2321.0441      4334.6346    
      6130   397.50032     -924.67964      1143.5104      4339.7143    
      6140   392.60488     -924.42147      126.58685      4345.3403    
      6150   430.50212     -925.33032     -925.99279      4351.0258    
      6160   454.0534      -925.83274     -2031.5523      4356.2716    
      6170   440.0705      -925.31029     -3132.4591      4360.5534    
      6180   404.76825     -924.21974     -3934.0708      4363.3571    
      6190   376.62106     -923.33581     -4124.5023      4364.3151    
      6200   417.6879      -924.36565     -3994.3253      4363.3241    
      6210   458.93338     -925.39121     -3509.9546      4360.4537    
      6220   406.03833     -923.82005     -2365.7549      4355.958     
      6230   407.04131     -923.75606     -991.1973       4350.37      
      6240   463.06469     -925.20769      302.02272      4344.3334    
      6250   415.92519     -923.80069      1842.7638      4338.4784    
      6260   385.25236     -922.85972      3280.8475      4333.5129    
      6270   476.62249     -925.29567      4043.6673      4330.0793    
      6280   484.32638     -925.41927      4669.2266      4328.5563    
      6290   441.79985     -924.19662      4766.2306      4329.2123    
      6300   493.15044     -925.62422      3678.2785      4332.0569    
      6310   476.27583     -925.21491      2311.8836      4336.624     
      6320   383.82544     -922.74975      929.27438      4342.2823    
      6330   395.9506      -923.20119     -751.7769       4348.3648    
      6340   439.21691     -924.55382     -2089.3474      4354.1059    
      6350   406.46277     -923.83432     -2739.4021      4358.8857    
      6360   417.18435     -924.34724     -3324.2707      4362.3629    
      6370   466.37726     -925.98187     -3914.2385      4364.2568    
      6380   445.80649     -925.72205     -4104.1001      4364.3065    
      6390   395.74144     -924.61611     -3836.5422      4362.4258    
      6400   375.80686     -924.28855     -3144.2573      4358.749     
      6410   392.04422     -924.91653     -2201.8036      4353.6065    
      6420   411.82925     -925.6175      -1036.1643      4347.4524    
      6430   378.67405     -924.81559      652.54944      4340.8625    
      6440   382.47594     -925.00369      2347.8019      4334.6103    
      6450   420.26742     -926.12397      3698.6833      4329.4757    
      6460   397.1629      -925.5488       4698.2079      4326.0865    
      6470   416.57761     -926.15739      4983.9005      4324.8835    
      6480   443.72364     -927.0016       4601.4644      4325.9953    
      6490   393.85927     -925.72029      3767.4123      4329.2482    
      6500   371.62472     -925.1953       2398.5586      4334.2456    
      6510   382.36438     -925.56923      767.65537      4340.3583    
      6520   363.98832     -925.11169     -798.78276      4346.8335    
      6530   374.74978     -925.44168     -2241.9297      4352.9309    
      6540   392.41681     -925.94991     -3335.7393      4357.9742    
      6550   369.55226     -925.32351     -3885.7144      4361.4507    
      6560   378.32566     -925.56707     -4024.9502      4363.0927    
      6570   418.6925      -926.68559     -3945.9702      4362.8285    
      6580   406.46448     -926.35086     -3629.4409      4360.7037    
      6590   380.55291     -925.64303     -2923.2478      4356.8842    
      6600   359.69635     -925.06488     -1794.0539      4351.7169    
      6610   369.7709      -925.32405     -510.79976      4345.7344    
      6620   399.16539     -926.09838      903.87927      4339.5485    
      6630   377.90317     -925.44915      2513.1958      4333.833     
      6640   394.16941     -925.8312       3738.2022      4329.3127    
      6650   445.46707     -927.17916      4408.2022      4326.5456    
      6660   414.93126     -926.26977      4650.9406      4325.843     
      6670   375.75372     -925.13826      4066.4273      4327.2906    
      6680   376.22632     -925.10312      2907.3886      4330.6193    
      6690   342.7176      -924.10328      1912.9446      4335.3181    
      6700   375.64488     -924.92279      755.83545      4340.9013    
      6710   436.11724     -926.46843     -496.7686       4346.8286    
      6720   412.74538     -925.68013     -1517.2591      4352.524     
      6730   411.96277     -925.5317      -2604.5128      4357.4876    
      6740   436.09181     -926.07747     -3557.154       4361.2104    
      6750   392.44984     -924.75476     -3852.154       4363.2662    
      6760   396.0681      -924.75882     -3960.6606      4363.4923    
      6770   424.49235     -925.4493      -3705.0313      4361.8536    
      6780   396.89233     -924.5914      -2745.8513      4358.4997    
      6790   431.65837     -925.47427     -1825.8149      4353.8615    
      6800   437.15458     -925.55112     -881.55931      4348.3895    
      6810   347.27003     -922.99014      505.10007      4342.5586    
      6820   392.92569     -924.18506      1606.9345      4336.9897    
      6830   453.61233     -925.77578      2645.8913      4332.208     
      6840   362.91809     -923.17259      4207.6319      4328.7251    
      6850   415.30449     -924.5517       4965.0467      4327.1989    
      6860   524.94336     -927.52234      4786.2178      4327.9705    
      6870   460.16983     -925.70978      4251.203       4330.9766    
      6880   424.99301     -924.76765      2826.0918      4335.9347    
      6890   471.64282     -926.12698      771.64085      4342.184     
      6900   396.33317     -924.12131     -827.5815       4348.8055    
      6910   345.09415     -922.77082     -2223.0449      4355.0278    
      6920   405.09491     -924.50203     -3666.2294      4360.1733    
      6930   425.47221     -925.14803     -4533.9409      4363.5862    
      6940   406.96696     -924.74607     -4674.8506      4364.8636    
      6950   372.85771     -923.92985     -4259.8524      4363.939     
      6960   373.9633      -924.09876     -3503.4134      4361.013     
      6970   423.72866     -925.64618     -2423.2715      4356.4601    
      6980   440.11225     -926.31711     -991.01832      4350.81      
      6990   429.54095     -926.28128      460.0795       4344.737     
      7000   433.63337     -926.68807      1564.0188      4338.9129    
      7010   374.46545     -925.32342      2595.3368      4333.8684    
      7020   341.97542     -924.61957      3347.2538      4330.0686    
      7030   407.96467     -926.613        3627.5134      4327.8445    
      7040   406.84969     -926.72597      3860.1357      4327.3352    
      7050   345.9128      -925.13335      3855.3369      4328.6311    
      7060   386.59098     -926.33039      3084.6291      4331.6966    
      7070   406.70767     -926.942        1962.0691      4336.1856    
      7080   364.10308     -925.79478      685.67807      4341.5761    
      7090   379.65118     -926.24359     -913.47091      4347.2548    
      7100   368.36882     -925.92733     -2301.7871      4352.4901    
      7110   319.23044     -924.53749     -3228.4622      4356.635     
      7120   346.21214     -925.23816     -3865.2709      4359.241     
      7130   369.90371     -925.82019     -3766.6782      4360.0346    
      7140   377.5404      -925.94326     -3099.1296      4359.0659    
      7150   443.7245      -927.68624     -2447.6241      4356.6365    
      7160   440.53832     -927.51435     -1537.6799      4353.0832    
      7170   369.67517     -925.48689     -551.01819      4348.8389    
      7180   380.89104     -925.73963     -2.6721129      4344.35      
      7190   381.25089     -925.67361      786.14057      4339.9096    
      7200   349.88267     -924.71524      1952.9703      4335.8938    
      7210   393.47928     -925.82204      2750.4414      4332.8106    
      7220   411.33055     -926.19741      3274.7662      4331.0335    
      7230   397.14838     -925.69221      3499.3864      4330.796     
      7240   428.13504     -926.45179      3166.689       4332.1813    
      7250   415.57538     -926.01313      2423.4873      4335.0329    
      7260   360.33808     -924.4037       1416.918       4339.0016    
      7270   374.04914     -924.70215      143.8815       4343.609     
      7280   391.2855      -925.07713     -979.65363      4348.2702    
      7290   363.57411     -924.19576     -1688.4517      4352.4681    
      7300   401.33767     -925.12649     -2466.5754      4355.844     
      7310   432.57193     -925.86755     -3070.7408      4358.0444    
      7320   401.13975     -924.88926     -3014.2953      4358.8095    
      7330   385.32677     -924.3617      -2462.3667      4358.1672    
      7340   458.22282     -926.3014      -1929.5736      4356.3662    
      7350   489.12729     -927.09963     -1279.4746      4353.676     
      7360   424.11387     -925.28286     -402.05988      4350.4173    
      7370   402.08066     -924.6788       226.52566      4346.9884    
      7380   435.53095     -925.62407      520.52246      4343.6815    
      7390   394.27067     -924.50189      1049.3086      4340.6621    
      7400   376.96046     -924.04064      1544.4934      4338.1609    
      7410   426.88867     -925.44549      1847.7248      4336.3992    
      7420   382.71707     -924.23962      2237.7882      4335.5275    
      7430   346.76764     -923.25147      2313.0349      4335.7041    
      7440   434.02334     -925.67537      1819.2191      4336.9452    
      7450   437.91071     -925.79242      1466.9405      4339.0473    
      7460   374.008       -924.03912      1118.5072      4341.835     
      7470   419.37695     -925.32109      213.184        4345.1139    
      7480   448.38179     -926.15898     -536.82852      4348.489     
      7490   408.30627     -925.09852     -895.15271      4351.6168    
      7500   425.10695     -925.63604     -1540.3473      4354.2956    
      7510   432.32009     -925.9331      -2245.0639      4356.2344    
      7520   406.16732     -925.33138     -2556.8057      4357.1209    
      7530   391.38166     -925.06557     -2461.3586      4356.8127    
      7540   390.84909     -925.21187     -2080.915       4355.3582    
      7550   419.46525     -926.19631     -1607.4016      4352.9373    
      7560   436.32564     -926.90582     -1117.306       4349.7785    
      7570   368.0512      -925.26344     -434.83749      4346.1288    
      7580   330.23412     -924.41452      222.26         4342.3031    
      7590   356.16987     -925.30164      820.34627      4338.6103    
      7600   328.76197     -924.66252      1629.1303      4335.3424    
      7610   336.83167     -924.95794      2385.1603      4332.8629    
      7620   408.76309     -927.00476      2867.6618      4331.5103    
      7630   411.59875     -927.12826      3178.2725      4331.5088    
      7640   391.10092     -926.60202      3117.6265      4332.9879    
      7650   405.77848     -927.04849      2484.7602      4335.9036    
      7660   411.6209      -927.24607      1394.2714      4339.9597    
      7670   406.45076     -927.13657      0.17173334     4344.6459    
      7680   369.47509     -926.13354     -1345.9115      4349.3182    
      7690   337.02508     -925.23326     -2411.5869      4353.3491    
      7700   346.16955     -925.46345     -3090.5922      4356.2378    
      7710   346.76897     -925.43345     -3239.5167      4357.6747    
      7720   357.30065     -925.66274     -3186.928       4357.5804    
      7730   395.75819     -926.65557     -2942.4115      4355.9879    
      7740   382.86926     -926.21968     -2043.3313      4353.0456    
      7750   355.63046     -925.38641     -834.41414      4349.1751    
      7760   401.86177     -926.58352      5.3382038      4344.9237    
      7770   408.72957     -926.68057      867.44932      4340.7105    
      7780   360.84223     -925.2659       1878.7634      4336.9461    
      7790   384.25541     -925.8306       2514.2063      4334.0762    
      7800   400.48771     -926.18682      2832.4891      4332.3961    
      7810   359.44244     -924.95831      2951.418       4332.052     
      7820   368.01112     -925.10809      2665.38        4333.0807    
      7830   405.61405     -926.0517       2277.0581      4335.3562    
      7840   415.6355      -926.23174      1837.6363      4338.6956    
      7850   436.62214     -926.73255      901.99728      4342.8693    
      7860   439.58333     -926.75461     -291.60469      4347.4458    
      7870   375.41745     -924.93116     -1395.121       4351.8767    
      7880   343.12687     -923.98993     -2530.6074      4355.6305    
      7890   378.07606     -924.89652     -3338.6127      4358.1862    
      7900   403.44914     -925.524       -3444.5814      4359.1806    
      7910   394.66        -925.20628     -3044.0705      4358.5622    
      7920   421.8478      -925.89616     -2537.6555      4356.5113    
      7930   424.44373     -925.91342     -1669.516       4353.292     
      7940   373.33148     -924.45045     -612.36767      4349.3164    
      7950   377.36606     -924.51511      219.2289       4345.07      
      7960   414.07311     -925.47432      1054.9025      4340.959     
      7970   412.40027     -925.36784      1908.4196      4337.3761    
      7980   407.55757     -925.18308      2591.2867      4334.7088    
      7990   423.95394     -925.59668      3073.6633      4333.271     
      8000   434.24507     -925.85556      3153.9116      4333.2722    
      8010   430.46054     -925.74662      2668.086       4334.7355    
      8020   397.00984     -924.82895      1943.8866      4337.4419    
      8030   386.05726     -924.53531      1180.8597      4341.0576    
      8040   429.93599     -925.76319      182.72751      4345.2101    
      8050   413.16998     -925.31432     -750.11563      4349.443     
      8060   375.87665     -924.29601     -1720.682       4353.3102    
      8070   432.756       -925.89406     -2847.6919      4356.344     
      8080   421.77064     -925.62406     -3318.1029      4358.0491    
      8090   328.86363     -923.07999     -3022.5151      4358.2123    
      8100   368.31566     -924.19807     -2733.1979      4356.9413    
      8110   419.675       -925.63342     -2011.4462      4354.4053    
      8120   418.22581     -925.60731     -840.72872      4350.9554    
      8130   456.3359      -926.70094      189.98224      4347.1253    
      8140   474.01101     -927.27943      1012.0697      4343.4031    
      8150   389.97194     -925.08405      1651.2698      4340.1787    
      8160   362.80854     -924.47994      1739.3012      4337.7296    
      8170   399.21352     -925.66954      1650.406       4336.1079    
      8180   366.77597     -924.96218      1803.6507      4335.2852    
      8190   350.26283     -924.68228      1863.8229      4335.3138    
      8200   363.30002     -925.20731      1813.3581      4336.219     
      8210   388.86802     -926.06888      1547.318       4337.9698    
      8220   419.38149     -927.0725       1043.6727      4340.4383    
      8230   398.85138     -926.65786      519.38265      4343.3971    
      8240   377.34277     -926.19557     -231.04445      4346.5884    
      8250   390.29621     -926.67253     -1247.5304      4349.6549    
      8260   361.52617     -925.97001     -2004.4073      4352.1398    
      8270   337.14965     -925.35471     -2372.1323      4353.6894    
      8280   391.73336     -926.91263     -2511.8887      4354.1229    
      8290   387.94853     -926.84137     -2190.2622      4353.3896    
      8300   330.54739     -925.2646      -1595.5782      4351.6398    
      8310   364.95441     -926.21514     -1252.9814      4349.134     
      8320   392.55043     -926.95494     -730.98741      4346.0588    
      8330   353.36907     -925.82778      270.6885       4342.6782    
      8340   355.50944     -925.83233      1133.4558      4339.4364    
      8350   379.20435     -926.40994      1712.6987      4336.7348    
      8360   386.61569     -926.51928      2074.0024      4334.8445    
      8370   373.34919     -926.0472       2241.2485      4333.9337    
      8380   369.073       -925.81765      2207.8241      4334.0748    
      8390   363.89501     -925.5507       2146.6266      4335.2581    
      8400   386.69028     -926.04826      1867.2364      4337.4436    
      8410   409.67526     -926.54075      1337.6258      4340.4995    
      8420   435.70858     -927.12682      509.98987      4344.1739    
      8430   427.93572     -926.79735     -518.05381      4348.0807    
      8440   368.39391     -925.05593     -1525.0531      4351.744     
      8450   363.82444     -924.84763     -2549.775       4354.6813    
      8460   360.6878      -924.66909     -3147.6162      4356.4256    
      8470   333.11143     -923.80648     -2997.1002      4356.7103    
      8480   396.83509     -925.47057     -2542.9377      4355.5867    
      8490   444.41928     -926.68103     -1801.101       4353.2785    
      8500   401.7669      -925.4159      -952.72278      4350.1347    
      8510   388.00744     -924.97517     -221.32431      4346.5499    
      8520   407.72198     -925.46818      615.15403      4342.8801    
      8530   383.52153     -924.74269      1693.9304      4339.5303    
      8540   433.12474     -926.07437      2285.6622      4336.97      
      8550   458.65781     -926.75531      2642.6381      4335.4892    
      8560   406.73959     -925.31459      2813.8255      4335.2546    
      8570   398.39724     -925.09559      2400.4935      4336.3252    
      8580   414.254       -925.55056      1597.699       4338.514     
      8590   401.78722     -925.22066      741.95457      4341.4584    
      8600   402.0854      -925.2474      -151.5869       4344.7537    
      8610   369.58423     -924.3568      -826.6476       4347.9901    
      8620   356.30644     -923.98274     -1327.3431      4350.8458    
      8630   422.78111     -925.81187     -1785.4537      4353.0752    
      8640   404.74271     -925.29279     -1877.1518      4354.4794    
      8650   397.22692     -925.0726      -2043.6916      4354.9935    
      8660   450.85392     -926.56058     -2264.1257      4354.5388    
      8670   387.39586     -924.81061     -1791.4953      4353.0486    
      8680   350.60585     -923.79634     -1093.9875      4350.7257    
      8690   439.52299     -926.26236     -638.93017      4347.8812    
      8700   442.47163     -926.35071      98.000315      4344.7582    
      8710   371.50115     -924.3992       1092.6052      4341.7049    
      8720   406.31284     -925.38442      1709.0014      4339.1591    
      8730   436.07565     -926.23466      2125.8462      4337.4209    
      8740   410.40874     -925.56399      2289.7437      4336.6816    
      8750   411.28783     -925.64769      2083.5534      4337.0125    
      8760   411.88514     -925.74083      1652.9773      4338.3223    
      8770   394.13163     -925.33828      983.84125      4340.4073    
      8780   381.74452     -925.0953       224.64388      4342.9588    
      8790   346.18081     -924.20168     -386.58457      4345.6301    
      8800   371.29042     -924.98393     -1006.3694      4348.1242    
      8810   407.28679     -926.07861     -1477.7408      4350.1537    
      8820   380.1678      -925.43066     -1567.1399      4351.5069    
      8830   393.23972     -925.90754     -1653.2709      4352.1224    
      8840   409.83904     -926.50464     -1657.8319      4351.9628    
      8850   358.65788     -925.22331     -1324.8806      4351.0391    
      8860   371.56747     -925.7102      -1151.1286      4349.4837    
      8870   416.73529     -927.10858     -937.66409      4347.389     
      8880   363.46191     -925.77253     -158.65474      4344.8817    
      8890   356.67964     -925.70299      676.74785      4342.3058    
      8900   410.47768     -927.31297      1245.4622      4340.0422    
      8910   404.86655     -927.27948      1714.7308      4338.3687    
      8920   391.76817     -927.03632      1866.5064      4337.4958    
      8930   392.46946     -927.17525      1579.6101      4337.4888    
      8940   344.30338     -925.93765      1074.3196      4338.2256    
      8950   314.80517     -925.18227      335.91523      4339.4643    
      8960   304.35263     -924.91562     -149.67627      4340.8792    
      8970   301.41903     -924.81509     -204.41198      4342.2489    
      8980   357.70389     -926.32004     -223.10431      4343.5293    
      8990   390.44271     -927.1363      -222.27887      4344.7131    
      9000   377.66685     -926.67812     -163.63479      4345.8031    
      9010   407.13367     -927.38793     -321.99246      4346.8141    
      9020   416.82596     -927.54529     -532.5302       4347.6787    
      9030   365.85241     -926.02861     -536.50617      4348.3096    
      9040   388.55047     -926.55983     -705.37527      4348.6851    
      9050   425.56772     -927.47762     -916.47363      4348.731     
      9060   385.77122     -926.27456     -892.32752      4348.3593    
      9070   352.83807     -925.27421     -883.30825      4347.5682    
      9080   338.75822     -924.78906     -920.31525      4346.3586    
      9090   333.68394     -924.53884     -604.28132      4344.73      
      9100   377.37007     -925.62644      44.291525      4342.8304    
      9110   416.62798     -926.58446      727.44271      4340.9518    
      9120   391.47758     -925.7778       1370.7757      4339.4177    
      9130   377.09813     -925.29552      1687.9115      4338.5183    
      9140   390.07811     -925.58271      1603.2451      4338.4027    
      9150   397.65119     -925.72873      1262.2433      4339.0386    
      9160   377.11736     -925.10326      980.76943      4340.283     
      9170   383.63897     -925.23236      637.29247      4341.9974    
      9180   417.79908     -926.12824      370.7354       4344.0309    
      9190   432.11938     -926.48581      137.6404       4346.2563    
      9200   395.87109     -925.45374     -247.88016      4348.5586    
      9210   422.12817     -926.16682     -1046.2728      4350.7417    
      9220   428.69232     -926.34291     -1642.7185      4352.4537    
      9230   368.20909     -924.66369     -1793.4256      4353.4194    
      9240   389.98398     -925.26411     -2081.7614      4353.5339    
      9250   418.35791     -926.04439     -2056.3019      4352.6779    
      9260   351.10887     -924.16659     -1400.9968      4350.8747    
      9270   368.10357     -924.61571     -884.54913      4348.3952    
      9280   430.79473     -926.31798     -366.57338      4345.4884    
      9290   362.79054     -924.38631      712.67652      4342.4281    
      9300   370.12518     -924.54153      1405.2642      4339.6768    
      9310   447.09808     -926.61271      1790.2923      4337.568     
      9320   418.07939     -925.74645      2361.1402      4336.3113    
      9330   417.00508     -925.67662      2454.1765      4336.1474    
      9340   439.65479     -926.27791      2049.6024      4337.1269    
      9350   384.40363     -924.72783      1602.525       4339.0888    
      9360   379.96973     -924.58872      806.89678      4341.8122    
      9370   411.25048     -925.43088     -121.34924      4344.9368    
      9380   377.31287     -924.45302     -632.88732      4348.0522    
      9390   416.80857     -925.51049     -1155.2272      4350.8926    
      9400   450.65686     -926.41089     -1580.3248      4353.2139    
      9410   397.92415     -924.92279     -1674.0877      4354.8223    
      9420   429.34825     -925.78353     -2013.9718      4355.6387    
      9430   459.00662     -926.61427     -2386.0166      4355.5043    
      9440   351.34365     -923.64825     -2104.5478      4354.2688    
      9450   341.0807      -923.37526     -1799.6268      4352.0264    
      9460   419.38252     -925.54169     -1474.7976      4348.9159    
      9470   393.42535     -924.80324     -337.64558      4345.1255    
      9480   378.40496     -924.3639       1144.1636      4341.1683    
      9490   429.51228     -925.74934      2247.969       4337.714     
      9500   437.48664     -925.93933      2871.4122      4335.285     
      9510   434.21183     -925.83939      2938.4795      4334.1776    
      9520   434.82566     -925.87272      2700.5829      4334.4438    
      9530   409.14544     -925.19761      2362.0208      4335.991     
      9540   390.79915     -924.73717      1815.0244      4338.6673    
      9550   395.54674     -924.91909      897.0022       4342.2189    
      9560   420.48701     -925.66762     -289.82622      4346.2258    
      9570   418.22747     -925.6763      -1333.6472      4350.1465    
      9580   373.7224      -924.51867     -1967.8244      4353.4947    
      9590   366.63411     -924.38954     -2478.8188      4355.949     
      9600   420.15267     -925.94702     -2932.4773      4357.2507    
      9610   410.74208     -925.77217     -2812.7439      4357.1948    
      9620   390.38376     -925.30093     -2313.8791      4355.8165    
      9630   422.20183     -926.29093     -1880.8561      4353.3228    
      9640   385.82566     -925.39795     -1261.4232      4349.9238    
      9650   330.05272     -923.94121     -397.19641      4345.91      
      9660   379.48332     -925.38497      442.90362      4341.6712    
      9670   417.49581     -926.50675      1605.7601      4337.6235    
      9680   414.52947     -926.49856      2736.2778      4334.3017    
      9690   428.21195     -926.96859      3283.1555      4332.2226    
      9700   418.63724     -926.81708      3213.6172      4331.6538    
      9710   344.43346     -924.86392      2768.2443      4332.5892    
      9720   339.40201     -924.80368      1975.5251      4334.8345    
      9730   379.44788     -925.9761       1094.3301      4338.0428    
      9740   368.24617     -925.70952      326.77916      4341.8205    
      9750   365.80923     -925.66891     -607.70852      4345.7976    
      9760   397.01219     -926.54986     -1479.2201      4349.5426    
      9770   373.57889     -925.90409     -1809.4629      4352.6593    
      9780   362.05505     -925.57669     -2070.7144      4354.9591    
      9790   417.60576     -927.10079     -2543.5673      4356.2928    
      9800   408.75974     -926.83557     -2612.4675      4356.4515    
      9810   372.25866     -925.80658     -2306.7161      4355.3849    
      9820   390.34972     -926.28563     -1945.0217      4353.2098    
      9830   394.15482     -926.35495     -1404.808       4350.0939    
      9840   369.76761     -925.6301      -725.40329      4346.2833    
      9850   359.40306     -925.27539     -56.540871      4342.0853    
      9860   333.18548     -924.44685      968.51163      4337.8303    
      9870   338.97244     -924.46547      2210.2605      4333.9977    
      9880   410.87621     -926.25688      3112.7349      4331.1518    
      9890   411.73852     -926.03577      3878.2438      4329.7436    
      9900   413.45477     -925.85687      4067.3132      4330.1318    
      9910   473.29959     -927.30648      3460.9495      4332.4214    
      9920   447.17709     -926.41287      2510.4621      4336.3779    
      9930   374.02747     -924.2711       1162.2992      4341.5761    
      9940   405.7066      -925.05576     -645.54898      4347.3908    
      9950   408.86115     -925.04512     -1964.618       4353.0158    
      9960   364.33518     -923.72303     -2713.577       4357.8179    
      9970   419.32757     -925.169       -3554.0461      4361.3916    
      9980   454.29346     -926.06846     -3987.6031      4363.3367    
      9990   384.59798     -924.09217     -3720.8445      4363.4338    
     10000   392.88062     -924.29564     -3556.7201      4361.7453    
     10010   436.41762     -925.48198     -3235.7045      4358.3387    
     10020   389.93979     -924.17985     -2034.3947      4353.3802    
     10030   376.91966     -923.80495     -481.20942      4347.4007    
     10040   439.90544     -925.532        1067.1395      4341.1154    
     10050   443.44054     -925.61593      2697.9589      4335.2631    
     10060   426.19702     -925.14537      3952.6734      4330.5994    
     10070   431.59453     -925.32289      4634.9825      4327.7228    
     10080   434.37319     -925.45202      4761.9907      4326.978     
     10090   417.00899     -925.0427       4325.0973      4328.4562    
     10100   414.35011     -925.05656      3341.1576      4331.9865    
     10110   407.84437     -924.96755      2067.445       4337.1545    
     10120   429.28785     -925.66107      429.07104      4343.3814    
     10130   414.40492     -925.35311     -1187.1327      4349.9269    
     10140   370.90022     -924.23775     -2567.8285      4356.0326    
     10150   384.06914     -924.67886     -3849.2023      4361.0187    
     10160   398.24549     -925.14345     -4689.7947      4364.2626    
     10170   373.87765     -924.53191     -4666.4753      4365.3474    
     10180   403.6944      -925.42283     -4137.2863      4364.231     
     10190   440.68242     -926.52603     -3384.131       4361.1243    
     10200   407.97219     -925.70853     -2454.6832      4356.3619    
     10210   381.57772     -925.06259     -1436.8278      4350.3642    
     10220   377.19482     -925.01315     -82.757413      4343.6132    
     10230   360.63339     -924.59965      1832.261       4336.7576    
     10240   394.99021     -925.57798      3590.8811      4330.6708    
     10250   454.50959     -927.25955      4669.2544      4326.1713    
     10260   441.36732     -926.95394      5243.1022      4323.7973    
     10270   400.43459     -925.9004       5273.5027      4323.8454    
     10280   391.06971     -925.72965      4545.8024      4326.3583    
     10290   383.5355      -925.60664      3172.8887      4331.0425    
     10300   357.34056     -924.94767      1440.8488      4337.3019    
     10310   362.47625     -925.13142     -271.3969       4344.3621    
     10320   390.50311     -925.9297      -1718.2113      4351.432     
     10330   381.66175     -925.68979     -2971.1727      4357.8175    
     10340   375.17866     -925.50423     -4386.1137      4362.8845    
     10350   379.72915     -925.61605     -5402.7296      4365.9509    
     10360   359.52734     -925.03299     -5436.8436      4366.5149    
     10370   363.25808     -925.10273     -4779.0464      4364.5064    
     10380   402.97636     -926.15111     -3682.58        4360.1926    
     10390   395.6775      -925.8687      -1893.4338      4354.0867    
     10400   399.77733     -925.87347      0.9186144      4346.9973    
     10410   450.75734     -927.12879      1672.6318      4339.8043    
     10420   440.09996     -926.62285      3296.2663      4333.3122    
     10430   416.26171     -925.72574      4351.0948      4328.2723    
     10440   430.67403     -925.8536       4569.4515      4325.1861    
     10450   385.76481     -924.31464      4653.1982      4324.2156    
     10460   375.45511     -923.75502      4423.4566      4325.4195    
     10470   412.08014     -924.49383      3656.0042      4328.7145    
     10480   386.15794     -923.52813      2723.1684      4333.795     
     10490   418.74281     -924.23709      1260.2972      4340.2364    
     10500   476.9953      -925.6838      -563.0255       4347.3761    
     10510   405.34033     -923.57577     -1954.7743      4354.3953    
     10520   379.16956     -922.76639     -3201.3233      4360.6076    
     10530   453.16462     -924.74273     -4413.3227      4365.3895    
     10540   439.26019     -924.30106     -4883.2488      4368.1648    
     10550   409.53532     -923.45334     -4682.9428      4368.6667    
     10560   479.58576     -925.40346     -4243.1473      4366.9357    
     10570   500.10099     -926.02789     -3297.1927      4363.1683    
     10580   454.44905     -924.8688      -1926.5699      4357.7911    
     10590   450.29851     -924.89063     -590.21686      4351.4227    
     10600   467.52588     -925.53595      676.69753      4344.6912    
     10610   447.96464     -925.1872       1982.8094      4338.2027    
     10620   392.83939     -923.84404      3012.4464      4332.5646    
     10630   361.82678     -923.13126      3421.5804      4328.2571    
     10640   379.42912     -923.7451       3616.2508      4325.5023    
     10650   355.81373     -923.18712      4194.2984      4324.4395    
     10660   392.27278     -924.27847      4404.2436      4325.3282    
     10670   458.30533     -926.20468      4060.2331      4328.2907    
     10680   426.70378     -925.44298      3526.5503      4333.2204    
     10690   421.73716     -925.42706      2170.0829      4339.8714    
     10700   479.27214     -927.16813     -51.030593      4347.6297    
     10710   430.90025     -925.98827     -2195.7481      4355.4993    
     10720   362.24667     -924.2141      -3991.4965      4362.4624    
     10730   395.25379     -925.23937     -5469.1932      4367.6306    
     10740   386.73366     -925.10558     -6009.9328      4370.2889    
     10750   359.39487     -924.43182     -5718.0621      4370.1318    
     10760   422.50964     -926.27046     -5099.5394      4367.2366    
     10770   422.21922     -926.3597      -3838.0074      4361.8886    
     10780   389.91091     -925.55763     -2165.8465      4354.66      
     10790   400.85774     -925.94619     -477.047        4346.318     
     10800   380.25346     -925.44126      1493.869       4337.6755    
     10810   363.97342     -925.02834      3437.8853      4329.6517    
     10820   413.6186      -926.43434      4774.862       4323.1411    
     10830   385.69804     -925.68766      5830.6052      4318.801     
     10840   329.82081     -924.15419      6392.9436      4317.1373    
     10850   385.59717     -925.71366      5843.8257      4318.4118    
     10860   389.92459     -925.83558      4971.7961      4322.4462    
     10870   378.38162     -925.5141       3811.805       4328.8716    
     10880   432.60125     -927.01259      2021.6585      4337.1661    
     10890   429.40112     -926.91583     -100.91321      4346.5292    
     10900   374.32344     -925.37727     -2340.6645      4355.9756    
     10910   375.51382     -925.38405     -4555.5672      4364.4348    
     10920   395.57035     -925.89828     -6181.3446      4370.8456    
     10930   375.16835     -925.28513     -6894.7164      4374.4044    
     10940   389.00423     -925.62525     -6984.1449      4374.712     
     10950   413.03        -926.24951     -6314.3117      4371.6955    
     10960   381.76883     -925.3399      -4681.9624      4365.6611    
     10970   382.03342     -925.29488     -2668.2277      4357.3478    
     10980   412.57224     -926.06021     -585.21776      4347.6982    
     10990   385.67642     -925.20252      1633.315       4337.7067    
     11000   362.90581     -924.43649      3622.5979      4328.4063    
     11010   408.64552     -925.5351       5344.8932      4320.7357    
     11020   406.94724     -925.28708      6916.5305      4315.516     
     11030   386.06982     -924.51647      7637.6872      4313.4636    
     11040   416.95929     -925.18981      7219.0595      4314.9252    
     11050   429.06253     -925.34924      6244.6163      4319.7694    
     11060   419.12931     -924.926        4689.5951      4327.5843    
     11070   453.32236     -925.74893      2289.1141      4337.6669    
     11080   457.7763      -925.76216     -351.51431      4348.9448    
     11090   434.80498     -925.04097     -2989.756       4360.1834    
     11100   418.86125     -924.53097     -5428.9126      4370.1196    
     11110   405.16904     -924.09414     -7245.6192      4377.5748    
     11120   412.85514     -924.2699      -8332.4508      4381.6385    
     11130   385.90532     -923.50641     -8430.3765      4381.7609    
     11140   368.30551     -923.01739     -7520.2887      4377.8665    
     11150   421.60916     -924.50158     -5766.5538      4370.3688    
     11160   452.15182     -925.35889     -3025.4609      4360.1169    
     11170   438.90564     -925.00744      197.19107      4348.4058    
     11180   485.03795     -926.31702      2904.3713      4336.7298    
     11190   499.82826     -926.79898      4967.619       4326.367     
     11200   403.01626     -924.21091      6593.926       4318.2935    
     11210   351.07105     -922.84924      7419.7332      4313.2484    
     11220   389.20788     -923.98098      7433.94        4311.6184    
     11230   397.55139     -924.28799      7061.6155      4313.442     
     11240   403.02685     -924.52064      6183.1603      4318.5623    
     11250   436.33152     -925.53446      4609.6614      4326.5926    
     11260   445.96426     -925.90149      2422.1384      4336.8311    
     11270   425.9334      -925.44286     -274.56656      4348.2738    
     11280   413.94695     -925.18859     -3152.9012      4359.6633    
     11290   407.92952     -925.07871     -5638.8267      4369.6421    
     11300   404.12068     -925.01845     -7375.4884      4377.0092    
     11310   401.87393     -925.00316     -8120.0726      4380.9129    
     11320   397.4951      -924.93688     -7910.747       4380.9684    
     11330   406.28829     -925.24563     -7062.8007      4377.2485    
     11340   414.85842     -925.557       -5559.9855      4370.1615    
     11350   398.51779     -925.17367     -3367.2455      4360.4394    
     11360   393.75425     -925.09265     -917.3506       4349.1217    
     11370   417.14313     -925.77327      1715.7233      4337.3816    
     11380   402.34516     -925.37642      4451.5959      4326.4646    
     11390   389.82611     -925.02857      6542.9088      4317.6187    
     11400   418.13193     -925.81995      7444.7042      4311.782     
     11410   373.34818     -924.59286      7940.0751      4309.4021    
     11420   338.18757     -923.63285      7922.9541      4310.7003    
     11430   406.01921     -925.53098      6865.0117      4315.6547    
     11440   431.87854     -926.26731      5191.4424      4323.8154    
     11450   400.78127     -925.42927      3073.774       4334.4315    
     11460   451.70851     -926.86807      229.03893      4346.511     
     11470   465.83242     -927.29229     -2665.1919      4358.7475    
     11480   387.77758     -925.16209     -5206.3624      4369.7729    
     11490   370.77586     -924.71365     -7560.127       4378.3422    
     11500   391.4061      -925.30895     -9087.1317      4383.3311    
     11510   363.08572     -924.55342     -9197.0012      4384.0174    
     11520   380.03124     -925.06708     -8390.7248      4380.3207    
     11530   389.91028     -925.39054     -6680.984       4372.6442    
     11540   355.64753     -924.47566     -4003.4346      4361.8396    
     11550   379.5009      -925.14419     -1141.9524      4349.1759    
     11560   404.77268     -925.81362      1918.0039      4336.0384    
     11570   394.57214     -925.46859      5087.2922      4323.8735    
     11580   423.71267     -926.20318      7513.8977      4314.1166    
     11590   435.73568     -926.47373      8872.5713      4307.8582    
     11600   403.15355     -925.53769      9388.2556      4305.7136    
     11610   407.72039     -925.66498      8772.5431      4307.8879    
     11620   394.28239     -925.30894      7322.7157      4314.1088    
     11630   386.96925     -925.12417      5097.1027      4323.7136    
     11640   414.73759     -925.8956       2157.0516      4335.6793    
     11650   400.11722     -925.46307     -824.01929      4348.6631    
     11660   371.87851     -924.62398     -3460.6424      4361.2697    
     11670   413.50031     -925.69401     -5941.4798      4372.2225    
     11680   430.864       -926.07431     -7922.5523      4380.3375    
     11690   385.06159     -924.71518     -9028.082       4384.6711    
     11700   394.19013     -924.89978     -9307.1905      4384.6901    
     11710   406.79691     -925.18907     -8440.3766      4380.2932    
     11720   349.63836     -923.54547     -6222.3798      4371.9429    
     11730   362.72562     -923.83232     -3484.9852      4360.7054    
     11740   440.12641     -925.84737     -497.29413      4347.9156    
     11750   464.44152     -926.35523      2775.0386      4335.0152    
     11760   427.57653     -925.17696      5750.719       4323.5225    
     11770   439.24006     -925.3704       7595.0804      4314.7666    
     11780   418.85293     -924.70011      8617.8797      4309.5842    
     11790   398.63861     -924.07         8811.0753      4308.4068    
     11800   434.62508     -925.02617      8086.0019      4311.2889    
     11810   457.96571     -925.66043      6721.3603      4317.8935    
     11820   429.96171     -924.9018       4595.9615      4327.577     
     11830   415.84133     -924.53854      1695.2096      4339.3457    
     11840   426.74828     -924.86083     -1344.8824      4351.8642    
     11850   426.08292     -924.85602     -4104.9339      4363.706     
     11860   405.22942     -924.29278     -6374.069       4373.5588    
     11870   383.57241     -923.71143     -7890.6974      4380.3451    
     11880   397.1592      -924.12021     -8643.6425      4383.3446    
     11890   423.09475     -924.90067     -8616.3667      4382.2163    
     11900   384.17911     -923.9074      -7424.1519      4377.0287    
     11910   371.33692     -923.63826     -5326.563       4368.3893    
     11920   438.25502     -925.58191     -2731.8401      4357.3303    
     11930   441.449       -925.76137      494.79305      4345.1344    
     11940   424.29951     -925.37663      3716.1113      4333.318     
     11950   480.99471     -927.07045      6023.1553      4323.3441    
     11960   477.15645     -927.15389      7437.8557      4316.259     
     11970   400.96165     -925.26025      8018.6417      4312.677     
     11980   385.21897     -925.03951      7406.6649      4312.8039    
     11990   375.52634     -924.974        6073.1397      4316.3423    
     12000   341.54053     -924.19197      4524.2689      4322.6722    
     12010   354.57973     -924.66678      2670.7391      4331.055     
     12020   397.96488     -925.95318      622.82971      4340.6235    
     12030   376.70129     -925.41407     -1439.5031      4350.4192    
     12040   371.3333      -925.28711     -3539.8628      4359.4631    
     12050   387.177       -925.7276      -5285.2883      4366.7756    
     12060   379.48487     -925.50566     -6202.3848      4371.553     
     12070   380.98917     -925.53861     -6397.009       4373.3673    
     12080   409.25695     -926.32031     -6009.418       4372.1441    
     12090   417.58345     -926.55957     -4951.3792      4368.1073    
     12100   416.1513      -926.54057     -3493.1936      4361.7839    
     12110   410.13283     -926.3998      -1848.7381      4353.8906    
     12120   392.82245     -925.93987     -48.700224      4345.2304    
     12130   393.0563      -925.95644      1659.6778      4336.6506    
     12140   370.03683     -925.31212      3396.7432      4328.9573    
     12150   346.72578     -924.6395       4979.0384      4322.9382    
     12160   387.22468     -925.72247      5874.095       4319.2818    
     12170   410.06829     -926.31119      6002.9762      4318.3682    
     12180   370.64956     -925.17884      5607.824       4320.2411    
     12190   377.33958     -925.32718      4463.4124      4324.6809    
     12200   396.73707     -925.81257      2785.1852      4331.1485    
     12210   376.20992     -925.17358      1030.5839      4338.8699    
     12220   377.89473     -925.13395     -663.44629      4347.0208    
     12230   391.12125     -925.38817     -2182.677       4354.8042    
     12240   386.25706     -925.12155     -3375.9704      4361.5111    
     12250   429.78632     -926.18677     -4469.1011      4366.5667    
     12260   455.78353     -926.76615     -5141.7066      4369.4771    
     12270   430.59791     -925.95755     -5255.9143      4369.9435    
     12280   405.9547      -925.19531     -4984.8018      4367.9272    
     12290   399.38478     -924.94745     -4322.1622      4363.5839    
     12300   379.15515     -924.31786     -2998.9696      4357.2714    
     12310   393.96074     -924.6479      -1176.5003      4349.6363    
     12320   407.80893     -924.92704      897.1267       4341.5517    
     12330   423.18078     -925.23551      2613.2824      4333.9701    
     12340   426.21139     -925.1997       4034.1278      4327.6915    
     12350   399.34413     -924.34177      5297.5746      4323.3638    
     12360   398.97491     -924.22483      5995.9585      4321.5326    
     12370   452.63524     -925.60703      5739.2916      4322.476     
     12380   435.52863     -925.03571      4917.0206      4326.0709    
     12390   409.65119     -924.2411       3427.6676      4331.9106    
     12400   436.39207     -924.90205      1326.023       4339.2895    
     12410   412.12186     -924.13232     -593.33846      4347.2492    
     12420   373.63387     -922.95505     -2050.1629      4354.8946    
     12430   440.83695     -924.67547     -3340.8995      4361.5195    
     12440   504.12362     -926.24656     -4145.3458      4366.5327    
     12450   470.64229     -925.15067     -4442.7468      4369.562     
     12460   441.73731     -924.22078     -4669.4341      4370.4597    
     12470   468.77093     -924.8615      -4829.6679      4369.1339    
     12480   436.11069     -923.86465     -4291.1332      4365.5619    
     12490   405.16167     -922.93606     -3293.7297      4360.0121    
     12500   424.83629     -923.40822     -1904.0696      4352.9814    
     12510   444.51233     -923.87139      87.974531      4345.156     
     12520   423.23447     -923.19715      2465.269       4337.4813    
     12530   445.83464     -923.74745      4140.5636      4331.0188    
     12540   491.29809     -924.95472      5020.2013      4326.5322    
     12550   461.65078     -924.12921      5488.0616      4324.4244    
     12560   431.67908     -923.34296      5367.5222      4324.8769    
     12570   468.01642     -924.44318      4618.7246      4327.8099    
     12580   450.19145     -924.08826      3485.7286      4332.8723    
     12590   429.91351     -923.69569      1769.4663      4339.5134    
     12600   443.10146     -924.25742     -152.49316      4346.9376    
     12610   430.52982     -924.11734     -1679.1421      4354.2637    
     12620   450.50719     -924.89425     -3122.4192      4360.7517    
     12630   456.26415     -925.29756     -4329.0586      4365.7273    
     12640   416.18556     -924.41807     -4912.2467      4368.6408    
     12650   420.67864     -924.74942     -5106.6985      4369.2145    
     12660   438.87906     -925.45774     -4890.5505      4367.375     
     12670   386.02265     -924.16746     -3983.2307      4363.2631    
     12680   378.53688     -924.09403     -2838.9479      4357.3127    
     12690   410.60336     -925.09814     -1409.2469      4350.0921    
     12700   383.99202     -924.4482       568.33396      4342.3055    
     12710   406.01615     -925.12464      2607.3468      4334.8712    
     12720   469.20773     -926.95282      4108.8972      4328.711     
     12730   431.77914     -926.01285      5295.6718      4324.5241    
     12740   393.05695     -925.04238      5711.2132      4322.8178    
     12750   420.75338     -925.9248       5097.9389      4323.7506    
     12760   401.55878     -925.51366      4004.1377      4327.0424    
     12770   361.13911     -924.49713      2711.8522      4332.1839    
     12780   380.68639     -925.12452      984.06844      4338.5501    
     12790   380.49952     -925.18446     -702.94928      4345.3473    
     12800   353.82996     -924.48445     -1868.7757      4351.8006    
     12810   383.50202     -925.32905     -2796.4164      4357.3451    
     12820   422.31024     -926.4216      -3576.4021      4361.5405    
     12830   408.40333     -926.05973     -3997.4859      4364.032     
     12840   407.06769     -926.05645     -4125.3724      4364.625     
     12850   449.85353     -927.29895     -4002.7972      4363.2678    
     12860   416.75604     -926.45979     -3221.0938      4360.0559    
     12870   367.13636     -925.16322     -2235.1402      4355.3548    
     12880   382.19541     -925.65065     -1366.4963      4349.6328    
     12890   379.84838     -925.64438     -211.67963      4343.3297    
     12900   328.13536     -924.24117      1275.1969      4336.9979    
     12910   347.66917     -924.78637      2544.5092      4331.3085    
     12920   374.14691     -925.49613      3745.3602      4326.8571    
     12930   361.88626     -925.1107       4773.8581      4324.1875    
     12940   416.21486     -926.56426      5015.3332      4323.7371    
     12950   469.7626      -928.00102      4537.1208      4325.6074    
     12960   404.52673     -926.16868      3729.5062      4329.5838    
     12970   356.90944     -924.83561      2245.6962      4335.2657    
     12980   377.66556     -925.379        288.13018      4341.96      
     12990   383.05619     -925.46581     -1244.0993      4348.7849    
     13000   393.22252     -925.66548     -2315.4451      4355.0159    
     13010   408.73051     -925.99696     -3188.4363      4360.1343    
     13020   421.71251     -926.25152     -3912.3408      4363.7265    
     13030   425.84091     -926.26415     -4494.1343      4365.4519    
     13040   406.38201     -925.63377     -4751.5332      4365.0474    
     13050   357.65291     -924.19566     -4272.4014      4362.424     
     13060   376.35176     -924.61672     -3425.4029      4357.8054    
     13070   402.05416     -925.19777     -2035.6928      4351.6203    
     13080   366.24193     -924.05085     -31.904915      4344.5477    
     13090   397.79367     -924.75517      1724.917       4337.5019    
     13100   444.01576     -925.83705      3179.5615      4331.3065    
     13110   404.7931      -924.56103      4610.4455      4326.6485    
     13120   405.876       -924.43691      5339.4011      4324.1499    
     13130   458.68434     -925.76436      5251.1427      4324.1308    
     13140   450.09266     -925.42508      4793.438       4326.5592    
     13150   436.48582     -924.99514      3761.1693      4331.2041    
     13160   441.23346     -925.10356      2160.9435      4337.5807    
     13170   441.99873     -925.12249      268.75528      4344.9483    
     13180   413.67187     -924.34506     -1594.9335      4352.4284    
     13190   409.4948      -924.24079     -3247.5796      4359.1431    
     13200   416.06668     -924.43728     -4420.8165      4364.3186    
     13210   411.56217     -924.33477     -4982.9974      4367.4025    
     13220   417.103       -924.52396     -5074.1355      4368.1228    
     13230   427.72184     -924.87007     -4730.062       4366.4462    
     13240   426.86665     -924.91596     -3966.1584      4362.5486    
     13250   405.5553      -924.40297     -2785.167       4356.8093    
     13260   393.90902     -924.15105     -1194.6884      4349.8063    
     13270   415.60935     -924.81646      499.9343       4342.2885    
     13280   404.79457     -924.5734       2283.2367      4335.0611    
     13290   378.73678     -923.89145      4000.4841      4328.9511    
     13300   437.43411     -925.56093      5116.326       4324.7277    
     13310   473.88835     -926.64275      5590.9523      4322.8966    
     13320   427.80573     -925.46726      5509.0432      4323.6707    
     13330   417.25048     -925.29034      4636.7525      4326.9914    
     13340   435.26634     -925.91395      3154.4418      4332.4556    
     13350   413.97706     -925.44313      1449.23        4339.3865    
     13360   398.72252     -925.11908     -372.65042      4346.9869    
     13370   415.88548     -925.67667     -2287.9949      4354.3947    
     13380   384.48791     -924.86641     -3799.8643      4360.7237    
     13390   355.72107     -924.10199     -4891.0996      4365.2515    
     13400   387.16802     -924.99322     -5613.3811      4367.4549    
     13410   389.80793     -925.08019     -5509.0603      4367.0147    
     13420   363.66651     -924.36466     -4533.7645      4363.9938    
     13430   384.56985     -924.94656     -3227.7516      4358.845     
     13440   416.39308     -925.82229     -1533.0323      4352.212     
     13450   425.04778     -926.05525      385.71038      4344.9021    
     13460   430.9561      -926.21872      2089.8267      4337.8088    
     13470   439.31681     -926.46531      3325.8194      4331.7194    
     13480   400.60955     -925.41815      4273.4334      4327.2144    
     13490   373.3375      -924.6875       4804.8868      4324.717     
     13500   402.23573     -925.51403      4888.7894      4324.4625    
     13510   418.95513     -926.00917      4583.8154      4326.486     
     13520   414.89596     -925.93885      3648.8475      4330.6333    
     13530   431.10666     -926.44529      1939.2249      4336.4579    
     13540   393.09691     -925.4488       126.7954       4343.1906    
     13550   354.44382     -924.4182      -1646.2876      4349.9801    
     13560   348.47525     -924.26763     -3225.778       4355.9928    
     13570   354.57803     -924.42627     -4234.2341      4360.4925    
     13580   368.93011     -924.79413     -4537.0341      4363.0044    
     13590   402.24075     -925.67853     -4424.6489      4363.371     
     13600   401.10881     -925.60394     -3773.7801      4361.6586    
     13610   404.88849     -925.66768     -2661.4023      4358.1824    
     13620   448.11419     -926.8294      -1436.5129      4353.4633    
     13630   432.02291     -926.35539     -94.599001      4348.0933    
     13640   428.55562     -926.25027      989.73657      4342.6927    
     13650   439.83838     -926.5721       1780.8072      4337.7716    
     13660   390.01825     -925.2142       2570.4948      4333.7113    
     13670   339.67014     -923.83425      3171.3949      4330.8697    
     13680   394.19443     -925.3551       3096.2543      4329.4986    
     13690   397.40907     -925.44325      2952.0517      4329.5858    
     13700   349.45258     -924.10535      2997.9955      4331.073     
     13710   382.07621     -924.98899      2638.1012      4333.9539    
     13720   434.41256     -926.39951      1728.086       4338.055     
     13730   412.56823     -925.7471       650.98959      4342.9698    
     13740   386.99006     -924.99123     -620.47606      4348.1868    
     13750   403.75507     -925.39609     -1836.8033      4353.1178    
     13760   430.99034     -926.07915     -2849.0469      4357.189     
     13770   405.10588     -925.28926     -3424.9499      4359.9287    
     13780   374.48382     -924.37054     -3613.264       4361.0589    
     13790   414.50392     -925.40371     -3576.0357      4360.4814    
     13800   422.22098     -925.53042     -2963.4884      4358.2337    
     13810   396.12486     -924.72346     -1899.0378      4354.6065    
     13820   428.23713     -925.53121     -894.4105       4350.0869    
     13830   441.25516     -925.80754      122.50796      4345.1587    
     13840   401.8867      -924.6422       1312.4438      4340.3137    
     13850   406.56602     -924.70528      2200.879       4336.0883    
     13860   431.91987     -925.34164      2825.9046      4332.9004    
     13870   411.90862     -924.72814      3363.8736      4331.0486    
     13880   408.87145     -924.59866      3385.8408      4330.7624    
     13890   424.53076     -924.99591      2956.3242      4332.0535    
     13900   395.62298     -924.16357      2516.6327      4334.7418    
     13910   391.06973     -924.00861      1820.9523      4338.6119    
     13920   441.47789     -925.37629      686.15131      4343.3295    
     13930   432.10831     -925.09241     -456.48877      4348.3833    
     13940   402.50189     -924.25986     -1566.4379      4353.2334    
     13950   440.09555     -925.30197     -2647.4776      4357.3503    
     13960   449.31902     -925.57845     -3387.9316      4360.2309    
     13970   404.08598     -924.36816     -3623.0322      4361.5287    
     13980   414.75125     -924.72797     -3641.3638      4361.1139    
     13990   422.15805     -925.01554     -3127.3761      4358.9945    
     14000   414.75913     -924.91106     -2037.5328      4355.4187    
     14010   421.69215     -925.22152     -831.74668      4350.8885    
     14020   427.2959      -925.51724      156.92973      4345.9643    
     14030   404.21694     -925.02905      1075.6263      4341.1241    
     14040   414.99401     -925.48971      1758.4292      4336.79      
     14050   395.19831     -925.10924      2452.7669      4333.2946    
     14060   350.60533     -924.01352      3103.4856      4330.9582    
     14070   377.67978     -924.8851       3265.4179      4330.064     
     14080   411.64405     -925.94526      3082.6767      4330.6947    
     14090   401.84369     -925.78952      2790.2591      4332.7772    
     14100   406.72763     -926.03744      2214.2377      4336.1696    
     14110   413.81232     -926.34598      1227.392       4340.599     
     14120   392.35896     -925.85137      45.808755      4345.6156    
     14130   396.64742     -926.05681     -1275.239       4350.6623    
     14140   404.50534     -926.35156     -2429.4277      4355.1262    
     14150   381.08986     -925.76707     -3289.5004      4358.4608    
     14160   363.21772     -925.31995     -3944.956       4360.2477    
     14170   358.88088     -925.23046     -4200.3         4360.1793    
     14180   356.13302     -925.16736     -3763.2633      4358.1444    
     14190   361.06787     -925.29837     -2591.1767      4354.355     
     14200   392.60563     -926.15002     -1055.3428      4349.355     
     14210   419.05172     -926.85066      506.82727      4343.8626    
     14220   414.45636     -926.69264      1855.2033      4338.6094    
     14230   413.30232     -926.63896      2723.3182      4334.2179    
     14240   406.97772     -926.45105      3138.8925      4331.0949    
     14250   356.27333     -925.03208      3331.2726      4329.4429    
     14260   329.04431     -924.25019      3247.4063      4329.3493    
     14270   385.89946     -925.78094      2678.9474      4330.7636    
     14280   400.95949     -926.1333       2184.855       4333.4497    
     14290   376.40237     -925.38633      1717.1756      4337.1777    
     14300   400.53459     -925.9873       837.87735      4341.7112    
     14310   418.53653     -926.41166     -284.98741      4346.6483    
     14320   383.38183     -925.36422     -1432.9448      4351.4687    
     14330   375.07959     -925.06147     -2578.55        4355.6256    
     14340   408.04995     -925.89583     -3455.8295      4358.5808    
     14350   390.78522     -925.33637     -3630.7225      4359.932     
     14360   347.25655     -924.05288     -3323.0033      4359.5821    
     14370   405.61356     -925.59077     -2961.4561      4357.6545    
     14380   460.16412     -927.01669     -2075.1618      4354.3449    
     14390   417.78284     -925.77813     -656.20628      4350.0775    
     14400   412.92982     -925.60419      452.74198      4345.4877    
     14410   438.55822     -926.28802      1156.7472      4341.0985    
     14420   398.26214     -925.15545      1830.596       4337.2595    
     14430   366.14851     -924.25151      2328.6796      4334.2783    
     14440   391.92927     -924.94839      2567.3438      4332.3844    
     14450   378.70968     -924.55524      2662.2312      4331.6966    
     14460   378.49367     -924.5223       2468.776       4332.252     
     14470   390.64466     -924.83032      2251.8099      4333.9754    
     14480   372.06634     -924.28284      2055.99        4336.772     
     14490   416.48607     -925.48525      1313.6466      4340.5272    
     14500   475.06473     -927.09509      351.17363      4344.9111    
     14510   431.69335     -925.90424     -331.33045      4349.4957    
     14520   417.48135     -925.53856     -1358.6104      4353.9292    
     14530   441.51585     -926.24399     -2687.2413      4357.7228    
     14540   395.32188     -925.00447     -3468.6869      4360.2791    
     14550   379.73676     -924.60852     -3899.564       4361.2077    
     14560   412.85196     -925.56345     -3964.0697      4360.2986    
     14570   375.3711      -924.55527     -3234.3252      4357.5398    
     14580   366.07553     -924.31737     -2080.3402      4353.2604    
     14590   419.53051     -925.81087     -791.56745      4347.9972    
     14600   408.05808     -925.49769      745.15288      4342.3711    
     14610   394.23152     -925.11923      2005.0478      4337.0851    
     14620   415.81237     -925.72436      2770.2871      4332.7224    
     14630   390.44721     -925.02915      3491.1448      4329.6627    
     14640   359.84534     -924.18224      4003.6988      4328.2365    
     14650   425.19271     -925.99644      3736.6211      4328.6591    
     14660   433.80733     -926.24526      3189.5873      4330.835     
     14670   374.02887     -924.60706      2620.8033      4334.5257    
     14680   391.77682     -925.11771      1586.2931      4339.4497    
     14690   435.81209     -926.3539       210.31087      4345.1334    
     14700   422.54063     -926.00935     -1074.9099      4350.9498    
     14710   406.8765      -925.60795     -2279.2579      4356.2875    
     14720   427.074       -926.21555     -3460.5514      4360.564     
     14730   393.48201     -925.34166     -4188.0236      4363.2313    
     14740   369.77885     -924.74604     -4600.3744      4363.9241    
     14750   372.41681     -924.87942     -4422.6679      4362.4519    
     14760   370.53989     -924.88145     -3399.9304      4358.9094    
     14770   381.82224     -925.23918     -2036.7067      4353.7613    
     14780   411.88273     -926.11473     -737.28768      4347.6411    
     14790   402.21483     -925.88943      665.88405      4341.1753    
     14800   383.94378     -925.42469      2204.868       4335.0293    
     14810   382.57071     -925.42564      3431.8217      4329.9069    
     14820   376.80229     -925.30023      4209.1341      4326.3778    
     14830   386.60278     -925.60846      4548.1998      4324.8045    
     14840   384.91579     -925.60027      4543.8795      4325.3531    
     14850   395.90673     -925.94892      4107.1641      4328.0238    
     14860   423.70106     -926.77546      3104.8807      4332.6167    
     14870   417.70141     -926.68178      1661.6941      4338.6779    
     14880   387.9785      -925.93623      33.755706      4345.5483    
     14890   404.02319     -926.46361     -1706.4803      4352.4628    
     14900   400.44797     -926.45339     -3237.4368      4358.6081    
     14910   356.48918     -925.31757     -4397.9559      4363.2542    
     14920   355.47274     -925.36247     -5264.3785      4365.8325    
     14930   367.47316     -925.76427     -5583.0076      4365.9289    
     14940   332.23149     -924.84235     -5003.1472      4363.4019    
     14950   324.11406     -924.64979     -3780.39        4358.5137    
     14960   364.15226     -925.76267     -2069.2969      4351.8455    
     14970   397.70032     -926.66496     -76.577576      4344.2071    
     14980   388.98667     -926.37356      1901.4528      4336.534     
     14990   389.30269     -926.31838      3579.6878      4329.7457    
     15000   425.89314     -927.26027      4893.56        4324.6246    
     15010   423.78327     -927.13321      5740.9186      4321.7792    
     15020   399.42167     -926.40738      5700.7747      4321.5874    
     15030   389.84233     -926.10064      4713.8755      4324.0325    
     15040   379.28405     -925.76193      3374.2126      4328.6875    
     15050   351.59218     -924.93057      2090.4433      4334.955     
     15060   361.57663     -925.11751      464.58071      4342.2217    
     15070   393.69779     -925.87709     -1487.2476      4349.7268    
     15080   387.39021     -925.54131     -3141.7737      4356.5715    
     15090   367.61463     -924.8236      -4150.8928      4361.9756    
     15100   379.30371     -924.97095     -4673.7142      4365.441     
     15110   418.01185     -925.85839     -4970.5171      4366.6953    
     15120   406.05288     -925.35298     -4744.6155      4365.6052    
     15130   379.55394     -924.47612     -3848.1348      4362.2814    
     15140   415.82302     -925.35459     -2501.5597      4357.1437    
     15150   457.9966      -926.40606     -1017.6644      4350.8224    
     15160   411.91538     -925.03731      604.2899       4344.0294    
     15170   402.74581     -924.7174       1946.4013      4337.5121    
     15180   421.99062     -925.19215      3113.9667      4331.9077    
     15190   409.15403     -924.78706      4217.2548      4327.7669    
     15200   430.6316      -925.35231      4860.5853      4325.5879    
     15210   445.50025     -925.75853      4816.0911      4325.6641    
     15220   419.84487     -925.06735      4113.6852      4327.9809    
     15230   411.7127      -924.87804      2835.8649      4332.22      
     15240   404.03623     -924.70495      1308.4459      4337.8043    
     15250   366.33347     -923.6871      -48.750989      4344.0417    
     15260   368.20332     -923.74863     -1431.8056      4350.2795    
     15270   398.2257      -924.57313     -2604.2421      4355.8741    
     15280   428.3955      -925.39921     -3320.2127      4360.2728    
     15290   442.74125     -925.80363     -3619.7303      4363.1248    
     15300   443.24574     -925.85169     -3795.5937      4364.2684    
     15310   447.5101      -926.039       -3959.5869      4363.6082    
     15320   414.84507     -925.22815     -3755.766       4361.0802    
     15330   377.72544     -924.29815     -2881.3771      4356.7945    
     15340   386.16997     -924.62223     -1586.549       4351.1541    
     15350   418.68564     -925.615       -70.994314      4344.7718    
     15360   385.93371     -924.79219      1486.687       4338.3586    
     15370   386.83765     -924.89256      2843.7789      4332.6383    
     15380   433.46695     -926.27066      3873.3257      4328.2415    
     15390   416.47454     -925.90263      4633.4558      4325.6536    
     15400   386.27971     -925.17803      4777.3129      4325.2155    
     15410   391.19629     -925.43258      4161.6166      4326.9914    
     15420   397.32        -925.72384      3137.103       4330.7183    
     15430   398.61714     -925.88444      1752.1577      4335.9239    
     15440   375.08144     -925.34744      298.23749      4341.9801    
     15450   353.92392     -924.85369     -1086.4906      4348.2091    
     15460   367.99055     -925.31418     -2358.6512      4353.9564    
     15470   398.38007     -926.21848     -3412.6182      4358.616     
     15480   401.29886     -926.36204     -3954.1976      4361.6935    
     15490   395.92407     -926.28435     -4077.1182      4362.9162    
     15500   375.93028     -925.80312     -3843.4897      4362.2174    
     15510   380.81331     -926.01089     -3397.1825      4359.6979    
     15520   406.40539     -926.79952     -2729.5475      4355.5697    
     15530   392.30357     -926.49702     -1634.0274      4350.1609    
     15540   353.77636     -925.51383     -147.87916      4343.9919    
     15550   354.64068     -925.61392      1265.4078      4337.7467    
     15560   367.11111     -926.03172      2457.9597      4332.0854    
     15570   364.32018     -926.02864      3621.5004      4327.5771    
     15580   365.48781     -926.14253      4485.4429      4324.7542    
     15590   383.29723     -926.73709      4684.5608      4324.0063    
     15600   373.26275     -926.58039      4251.7642      4325.4334    
     15610   348.90055     -926.03074      3342.9366      4328.848     
     15620   360.63604     -926.47807      2028.2574      4333.836     
     15630   375.56518     -927.01061      593.23753      4339.8019    
     15640   346.63387     -926.3079      -710.92739      4346.0862    
     15650   355.82956     -926.63974     -2063.3034      4352.0622    
     15660   380.69466     -927.39292     -3262.8533      4357.0939    
     15670   350.99353     -926.61663     -3987.7076      4360.617     
     15680   334.87816     -926.19727     -4393.5304      4362.2687    
     15690   363.70896     -927.00679     -4473.4155      4361.8464    
     15700   364.68632     -927.02629     -3904.7439      4359.3221    
     15710   340.78673     -926.337       -2897.5271      4354.955     
     15720   344.96138     -926.40118     -1715.7314      4349.2125    
     15730   340.90465     -926.19973     -188.80557      4342.667     
     15740   356.7596      -926.51444      1446.1936      4336.0301    
     15750   369.89154     -926.7165       3017.9211      4330.0663    
     15760   370.02757     -926.5386       4306.4865      4325.5041    
     15770   388.08739     -926.85239      5054.8281      4322.9346    
     15780   389.2635      -926.70301      5344.452       4322.7159    
     15790   388.58205     -926.52335      4884.9192      4324.978     
     15800   411.19144     -927.00755      3455.0617      4329.5073    
     15810   379.1525      -925.99041      1686.6526      4335.6766    
     15820   320.5036      -924.24828     -9.4302035      4342.6813    
     15830   349.2645      -924.92106     -1705.8949      4349.7191    
     15840   383.0234      -925.70343     -3105.0317      4355.9974    
     15850   372.42121     -925.2555      -4026.499       4360.8497    
     15860   376.78038     -925.23591     -4423.6002      4363.8277    
     15870   399.24532     -925.72706     -4322.3371      4364.7294    
     15880   408.95477     -925.87721     -3801.4274      4363.593     
     15890   440.59133     -926.65787     -3147.0709      4360.6487    
     15900   447.06447     -926.76707     -2239.6734      4356.2135    
     15910   405.64202     -925.57462     -1038.5092      4350.722     
     15920   401.35373     -925.42399      47.370937      4344.7251    
     15930   404.69751     -925.48379      1157.5785      4338.745     
     15940   370.59969     -924.50003      2428.1405      4333.3113    
     15950   353.32946     -923.97138      3440.1991      4329.0015    
     15960   394.41442     -925.04643      4133.9775      4326.2892    
     15970   418.0958      -925.63003      4612.2112      4325.5074    
     15980   418.01401     -925.5666       4465.8461      4326.8679    
     15990   423.9471      -925.6871       3592.2206      4330.3097    
     16000   404.43098     -925.1121       2257.8639      4335.448     
     16010   386.88291     -924.5926       621.89515      4341.6719    
     16020   393.0413      -924.72036     -976.15735      4348.2307    
     16030   389.5673      -924.56742     -2194.1299      4354.383     
     16040   409.57598     -925.05846     -3177.6901      4359.5375    
     16050   448.4681      -926.07662     -3859.2096      4363.2183    
     16060   430.01873     -925.52313     -3932.1251      4365.1061    
     16070   437.15316     -925.7071      -3877.5647      4365.1332    
     16080   459.52802     -926.34485     -3754.5024      4363.3149    
     16090   399.60775     -924.72625     -3103.1436      4359.7275    
     16100   361.44289     -923.71162     -2184.7517      4354.6652    
     16110   417.38243     -925.30463     -1230.2368      4348.5526    
     16120   404.06809     -924.97532      287.61663      4341.8693    
     16130   365.53444     -923.93662      2039.8008      4335.3209    
     16140   416.02297     -925.36651      3275.5646      4329.6956    
     16150   401.0623      -924.98181      4520.5911      4325.6015    
     16160   393.39003     -924.80944      5313.7366      4323.6027    
     16170   429.0018      -925.85807      5100.1394      4324.0525    
     16180   416.83757     -925.60936      4286.9544      4326.8812    
     16190   372.78887     -924.48715      3270.8657      4331.7417    
     16200   405.14315     -925.49001      1755.2153      4338.1571    
     16210   439.28693     -926.56417     -56.94413       4345.4365    
     16220   399.04933     -925.58947     -1797.4159      4352.7449    
     16230   382.00851     -925.25713     -3367.9787      4359.2554    
     16240   399.58304     -925.88886     -4508.9872      4364.22      
     16250   399.97107     -926.05637     -5001.3002      4367.0891    
     16260   381.48439     -925.69999     -5021.1565      4367.6044    
     16270   392.2671      -926.15516     -4766.4882      4365.7338    
     16280   392.83277     -926.32454     -3908.5601      4361.608     
     16290   380.32115     -926.11724     -2655.499       4355.6232    
     16300   364.11582     -925.78223     -1316.2527      4348.3617    
     16310   337.58375     -925.12307      254.56467      4340.4677    
     16320   325.24763     -924.81271      1940.8941      4332.6785    
     16330   358.1529      -925.72188      3651.5528      4325.7837    
     16340   377.47481     -926.22753      5376.4507      4320.5869    
     16350   393.73899     -926.64136      6430.9169      4317.866     
     16360   418.28398     -927.29482      6361.4809      4318.1012    
     16370   393.13466     -926.58447      5597.7007      4321.2965    
     16380   364.907       -925.79266      4209.2482      4327.1203    
     16390   403.32342     -926.84005      2057.846       4334.9358    
     16400   394.25288     -926.55216     -44.788858      4343.7883    
     16410   352.69217     -925.34787     -1970.6754      4352.6957    
     16420   386.76028     -926.22145     -3935.0946      4360.7269    
     16430   399.1766      -926.47422     -5357.3437      4366.9586    
     16440   357.43248     -925.22418     -6001.1122      4370.7011    
     16450   373.5572      -925.58122     -6302.4288      4371.6039    
     16460   393.66865     -926.03933     -6034.8757      4369.5169    
     16470   347.78353     -924.66656     -4841.5984      4364.5756    
     16480   363.60596     -925.00088     -3229.3331      4357.3233    
     16490   410.08231     -926.15546     -1234.3766      4348.5293    
     16500   377.9679      -925.11705      1259.3207      4339.1523    
     16510   371.9342      -924.80717      3451.7057      4330.3363    
     16520   413.58734     -925.81622      5060.7819      4323.0986    
     16530   418.71384     -925.82872      6467.7314      4318.209     
     16540   418.93073     -925.74574      7299.955       4316.3109    
     16550   443.96854     -926.39566      6947.0049      4317.7744    
     16560   442.26891     -926.34573      5736.4958      4322.4735    
     16570   426.37905     -925.93187      3823.7081      4329.8744    
     16580   415.73843     -925.67079      1431.1627      4339.1154    
     16590   385.56746     -924.85507     -1093.0832      4349.0998    
     16600   343.4541      -923.67885     -3451.8161      4358.6475    
     16610   353.92154     -923.93176     -5520.4418      4366.6263    
     16620   399.4261      -925.14069     -6785.7999      4372.0473    
     16630   388.99559     -924.80153     -6849.8493      4374.2983    
     16640   372.71709     -924.31218     -6269.025       4373.3025    
     16650   416.51211     -925.49508     -5354.2732      4369.3124    
     16660   454.17931     -926.51747     -3813.2757      4362.7761    
     16670   441.17387     -926.15593     -1733.0053      4354.4288    
     16680   418.34002     -925.5365       359.81049      4345.2394    
     16690   402.75124     -925.11705      2290.0739      4336.1964    
     16700   403.53387     -925.14693      4016.4592      4328.2083    
     16710   410.5376      -925.35038      5399.0843      4322.0766    
     16720   408.67192     -925.31814      6226.8235      4318.4382    
     16730   400.39924     -925.12246      6294.6133      4317.6753    
     16740   399.84489     -925.15491      5619.9346      4319.83      
     16750   386.5154      -924.83872      4591.9752      4324.6246    
     16760   383.5238      -924.8045       3124.3164      4331.5965    
     16770   425.03494     -926.00133      1045.4889      4340.0676    
     16780   418.14822     -925.8558      -992.88421      4349.1015    
     16790   379.27915     -924.81754     -2790.3994      4357.7425    
     16800   399.77856     -925.42071     -4578.0307      4365.1138    
     16810   413.19384     -925.83292     -5980.2555      4370.362     
     16820   371.67546     -924.73034     -6555.4171      4372.8135    
     16830   366.3823      -924.63484     -6348.1404      4372.169     
     16840   421.66499     -926.23291     -5523.0997      4368.5054    
     16850   396.71439     -925.61557     -3912.8752      4362.2232    
     16860   378.43667     -925.18201     -2057.5149      4354.0649    
     16870   416.47252     -926.30966     -134.95012      4344.908     
     16880   404.27902     -926.04402      2147.9679      4335.682     
     16890   382.67229     -925.51216      4182.3393      4327.4358    
     16900   416.19644     -926.52149      5406.8938      4321.0981    
     16910   394.96106     -926.03248      6172.4311      4317.2588    
     16920   351.95041     -924.94376      6415.8183      4316.2751    
     16930   371.85187     -925.60454      5834.8236      4318.2592    
     16940   387.70175     -926.16076      4672.8073      4322.9719    
     16950   364.92473     -925.64164      3146.2602      4329.9037    
     16960   358.23858     -925.55164      1341.7143      4338.3641    
     16970   375.53973     -926.10586     -621.92003      4347.5236    
     16980   405.25415     -926.99282     -2767.0126      4356.4545    
     16990   396.8628      -926.82061     -4692.2582      4364.1464    
     17000   356.18295     -925.74664     -5992.4045      4369.679     
     17010   347.26917     -925.54489     -6718.2791      4372.4025    
     17020   358.48682     -925.89602     -6755.7955      4371.9489    
     17030   356.45332     -925.87016     -5737.4826      4368.3015    
     17040   393.74459     -926.92645     -4031.7745      4361.9214    
     17050   407.30676     -927.31318     -1953.2782      4353.6089    
     17060   369.47248     -926.25894      209.58953      4344.3428    
     17070   375.91495     -926.41195      2084.892       4335.1333    
     17080   391.79891     -926.80247      3676.1702      4326.8644    
     17090   344.68017     -925.42266      5125.6985      4320.29      
     17100   335.06205     -925.0637       6038.7279      4316.0687    
     17110   364.33486     -925.74685      6346.7114      4314.6296    
     17120   370.83724     -925.76431      6295.4403      4316.1426    
     17130   386.96617     -926.02824      5626.1031      4320.5948    
     17140   409.22145     -926.44515      4135.6188      4327.6955    
     17150   410.6914      -926.28289      2038.6186      4336.7863    
     17160   412.91495     -926.15364     -312.56795      4346.9181    
     17170   410.30593     -925.90168     -2657.9088      4356.997     
     17180   392.99771     -925.25936     -4824.9658      4365.9054    
     17190   383.25206     -924.84443     -6492.0196      4372.5996    
     17200   383.1916      -924.7164      -7361.9162      4376.2637    
     17210   390.59174     -924.81613     -7343.5792      4376.4533    
     17220   393.93117     -924.82512     -6542.0244      4373.1502    
     17230   398.60914     -924.88831     -5093.3885      4366.7187    
     17240   406.74218     -925.05471     -2932.4755      4357.852     
     17250   418.89898     -925.33148     -314.70281      4347.571     
     17260   431.23193     -925.61097      2243.452       4337.0997    
     17270   442.61869     -925.87366      4324.7963      4327.6298    
     17280   413.19135     -925.01964      5974.5876      4320.1411    
     17290   402.33001     -924.6977       7057.8602      4315.3978    
     17300   411.88133     -924.95837      7363.3031      4313.9037    
     17310   412.63873     -924.99512      6805.7167      4315.8145    
     17320   413.9131      -925.0654       5580.8075      4320.9069    
     17330   405.14837     -924.86692      3986.4747      4328.6554    
     17340   398.89524     -924.735        1980.9813      4338.3433    
     17350   433.27744     -925.72432     -632.63629      4349.0384    
     17360   440.65312     -925.96751     -3304.1615      4359.5343    
     17370   373.86801     -924.1507      -5454.972       4368.5714    
     17380   358.22041     -923.73983     -7050.1702      4375.0932    
     17390   410.56318     -925.21915     -7923.1157      4378.3066    
     17400   402.07202     -925.02778     -7595.7097      4377.7847    
     17410   391.5405      -924.79737     -6387.0734      4373.6449    
     17420   428.24889     -925.89287     -4608.5548      4366.4427    
     17430   432.94472     -926.11418     -2302.1808      4357.0275    
     17440   420.859       -925.8809       152.07381      4346.4837    
     17450   413.57016     -925.78482      2486.5293      4335.9688    
     17460   408.8238      -925.76447      4497.3295      4326.5761    
     17470   404.15927     -925.75779      5996.1509      4319.2401    
     17480   384.69284     -925.3513       6917.8349      4314.6599    
     17490   374.92883     -925.21893      7105.6217      4313.265     
     17500   383.62049     -925.60854      6398.7223      4315.1513    
     17510   351.44322     -924.8564       5135.6935      4320.0316    
     17520   335.20518     -924.51591      3445.3799      4327.351     
     17530   384.39387     -925.96642      1414.4729      4336.3475    
     17540   398.25436     -926.41885     -483.70484      4346.106     
     17550   376.56242     -925.86499     -2293.6808      4355.7318    
     17560   405.96261     -926.71645     -4265.4405      4364.3429    
     17570   417.56574     -927.07472     -5943.4542      4370.9998    
     17580   386.24061     -926.25001     -6862.1086      4374.893     
     17590   382.85659     -926.20905     -7162.8576      4375.5444    
     17600   380.19212     -926.19661     -6743.1028      4372.7906    
     17610   344.18647     -925.25236     -5387.5539      4366.8287    
     17620   356.51484     -925.63015     -3388.4566      4358.2867    
     17630   388.0864      -926.51262     -935.90869      4348.1129    
     17640   376.59695     -926.16922      1706.0617      4337.4651    
     17650   363.06286     -925.73841      4034.4904      4327.5723    
     17660   391.11808     -926.43202      5725.5533      4319.5129    
     17670   391.44518     -926.32933      6912.1727      4314.0849    
     17680   371.71682     -925.65423      7373.328       4311.8354    
     17690   370.3778      -925.46369      7013.3676      4312.9887    
     17700   370.89928     -925.28129      6076.0621      4317.4118    
     17710   367.42359     -924.94519      4630.8333      4324.7047    
     17720   403.96318     -925.67982      2502.7195      4334.2137    
     17730   427.26671     -926.02759      267.2129       4344.9914    
     17740   413.81169     -925.39542     -1936.8456      4355.9981    
     17750   429.197       -925.6124      -4359.5329      4366.167     
     17760   438.66465     -925.70573     -6386.9942      4374.3494    
     17770   412.24158     -924.85362     -7553.3438      4379.5632    
     17780   405.93582     -924.60399     -8039.4168      4381.205     
     17790   405.85135     -924.55829     -7690.7147      4379.0223    
     17800   398.91283     -924.34474     -6328.0163      4373.1768    
     17810   425.51883     -925.07306     -4312.9394      4364.3018    
     17820   448.88722     -925.71897     -1757.3645      4353.3628    
     17830   397.38266     -924.28596      1236.9315      4341.583     
     17840   396.58108     -924.24689      3758.8224      4330.3436    
     17850   437.94739     -925.37341      5623.6032      4320.8222    
     17860   391.87117     -924.0812       7252.2555      4313.9077    
     17870   365.37274     -923.3397       8047.7948      4310.3277    
     17880   416.17305     -924.75445      7875.3506      4310.4504    
     17890   423.72994     -924.98804      7320.5948      4314.2419    
     17900   419.14805     -924.90873      6015.3474      4321.4561    
     17910   471.18611     -926.42622      3686.8214      4331.5053    
     17920   460.93344     -926.24319      1089.4211      4343.3617    
     17930   417.51305     -925.14866     -1682.546       4355.8163    
     17940   436.91364     -925.79915     -4682.1553      4367.5448    
     17950   416.68658     -925.35756     -7132.9114      4377.1286    
     17960   373.56056     -924.27505     -8696.3137      4383.3726    
     17970   394.26263     -924.97163     -9412.188       4385.4906    
     17980   396.23448     -925.17091     -8998.7205      4383.1298    
     17990   346.55179     -923.93246     -7479.5312      4376.4834    
     18000   357.5029      -924.35354     -5318.0348      4366.2703    
     18010   399.98508     -925.62671     -2511.2646      4353.5454    
     18020   384.62736     -925.26022      1107.1224      4339.6765    
     18030   385.20499     -925.29585      4671.5971      4326.3499    
     18040   431.36181     -926.57902      7345.7297      4315.1994    
     18050   443.76852     -926.94491      9166.9338      4307.4596    
     18060   403.74277     -925.89054      10028.262      4303.9522    
     18070   378.05212     -925.25733      9599.6552      4305.0518    
     18080   401.97069     -926.0189       7943.9556      4310.5699    
     18090   402.99701     -926.15479      5560.9186      4319.7809    
     18100   359.59382     -925.04014      2904.8204      4331.6192    
     18110   374.34275     -925.50488     -25.95517       4344.854     
     18120   413.37817     -926.61262     -3054.9945      4358.1129    
     18130   397.51009     -926.17795     -5833.1334      4369.9597    
     18140   367.29254     -925.33516     -8056.1924      4379.0564    
     18150   350.68747     -924.86502     -9299.3865      4384.3328    
     18160   354.35892     -924.95851     -9511.5459      4385.179     
     18170   384.58009     -925.79385     -8727.2051      4381.495     
     18180   385.76175     -925.82266     -6789.555       4373.6873    
     18190   378.72722     -925.60948     -4068.5493      4362.7022    
     18200   411.49781     -926.46945     -1104.9099      4349.8488    
     18210   393.48595     -925.87928      2137.8948      4336.5641    
     18220   372.59636     -925.17364      5086.3013      4324.3578    
     18230   429.96075     -926.60185      7204.9241      4314.5721    
     18240   427.60827     -926.34801      8829.5933      4308.1816    
     18250   381.0954      -924.88695      9535.4718      4305.889     
     18260   421.29132     -925.83816      8717.8587      4307.9674    
     18270   415.93944     -925.51215      7137.8284      4314.0633    
     18280   369.69793     -924.06352      5024.9313      4323.4546    
     18290   410.48387     -925.01449      2052.9844      4335.1446    
     18300   411.41003     -924.82111     -865.77171      4347.7843    
     18310   369.79097     -923.45818     -3249.3026      4360.0115    
     18320   430.88719     -924.94949     -5502.3363      4370.6614    
     18330   461.31618     -925.60121     -7162.5039      4378.6733    
     18340   431.26593     -924.63847     -8084.8953      4383.2529    
     18350   437.56586     -924.74656     -8375.0679      4383.9601    
     18360   437.44868     -924.72619     -7835.0209      4380.687     
     18370   391.93735     -923.47841     -6314.5668      4373.7381    
     18380   402.0716      -923.78375     -4197.6687      4363.8656    
     18390   419.45675     -924.27896     -1372.508       4352.1295    
     18400   439.71351     -924.8436       1770.2755      4339.8844    
     18410   464.63122     -925.54332      4518.8686      4328.5894    
     18420   447.34836     -925.09341      6617.4966      4319.5053    
     18430   437.75346     -924.88611      7917.0256      4313.5661    
     18440   435.36598     -924.91238      8330.827       4311.3286    
     18450   412.74661     -924.40509      7792.2465      4312.9414    
     18460   406.57333     -924.36683      6388.5146      4318.1282    
     18470   412.14937     -924.65954      4456.422       4326.2341    
     18480   398.55064     -924.40708      2260.1527      4336.3612    
     18490   417.93269     -925.05457     -279.53139      4347.4689    
     18500   427.56961     -925.41873     -2914.0015      4358.3656    
     18510   411.3561      -925.05805     -5231.9047      4367.8126    
     18520   374.60349     -924.11042     -6715.7134      4374.7312    
     18530   394.71923     -924.73553     -7414.3374      4378.418     
     18540   422.21309     -925.57692     -7321.798       4378.5658    
     18550   430.11761     -925.89785     -6596.1622      4375.2489    
     18560   414.59733     -925.58381     -5221.3355      4368.8618    
     18570   408.604       -925.53432     -3314.7545      4360.103     
     18580   397.7713      -925.33513     -1052.3965      4349.9146    
     18590   396.09128     -925.36678      1260.0126      4339.3785    
     18600   395.72034     -925.41294      3461.3427      4329.5819    
     18610   388.21569     -925.24318      5423.2836      4321.5338    
     18620   390.03785     -925.32326      6819.0919      4316.0998    
     18630   407.48315     -925.84233      7400.6571      4313.8721    
     18640   404.18283     -925.80018      7116.5641      4315.0723    
     18650   383.2085      -925.27608      5951.3047      4319.5279    
     18660   378.12701     -925.18628      4132.318       4326.6792    
     18670   396.4994      -925.73323      1970.9133      4335.6714    
     18680   390.74409     -925.59285     -149.7291       4345.4979    
     18690   377.5409      -925.2259      -2190.9205      4355.1545    
     18700   405.06697     -925.97312     -4204.8811      4363.6717    
     18710   422.5712      -926.4407      -5787.2017      4370.117     
     18720   394.36157     -925.65156     -6535.0563      4373.7717    
     18730   385.79834     -925.4191      -6533.4352      4374.3053    
     18740   408.72262     -926.06924     -6063.0353      4371.7481    
     18750   399.2985      -925.83172     -5077.6487      4366.3758    
     18760   346.37015     -924.3811      -3482.7496      4358.7121    
     18770   355.30005     -924.62317     -1513.5524      4349.5467    
     18780   395.79568     -925.70596      787.50732      4339.8394    
     18790   385.00307     -925.33661      3219.4566      4330.6743    
     18800   382.3947      -925.17726      5215.2913      4323.1494    
     18810   428.67445     -926.36212      6616.1879      4318.1516    
     18820   457.46736     -927.06871      7375.2237      4316.2798    
     18830   429.56286     -926.23592      7128.6894      4317.8192    
     18840   403.23016     -925.47385      5631.8192      4322.597     
     18850   398.63042     -925.31334      3456.8441      4329.9065    
     18860   394.04371     -925.13166      1156.9126      4338.7314    
     18870   369.10844     -924.35174     -967.05686      4347.9934    
     18880   350.92857     -923.7145      -2876.2879      4356.6884    
     18890   379.93759     -924.32486     -4442.3712      4363.9228    
     18900   418.50812     -925.13219     -5358.374       4368.981     
     18910   431.07363     -925.18876     -5539.9947      4371.4589    
     18920   446.13138     -925.33287     -5367.7413      4371.2881    
     18930   460.18385     -925.48956     -4812.7926      4368.5955    
     18940   449.46583     -925.01881     -3734.3157      4363.6951    
     18950   430.42523     -924.3699      -2243.6976      4357.1375    
     18960   442.96913     -924.63113     -646.11756      4349.6457    
     18970   421.84823     -923.97894      1164.572       4341.9984    
     18980   404.03269     -923.43136      2929.8178      4335.0371    
     18990   454.73303     -924.79792      4134.8354      4329.546     
     19000   453.01486     -924.73561      4964.7775      4326.0673    
     19010   437.98369     -924.34152      5210.6626      4324.9368    
     19020   454.14923     -924.84853      4816.1738      4326.2268    
     19030   430.72879     -924.28858      4000.0328      4329.7274    
     19040   394.6289      -923.38187      2709.3138      4335.0285    
     19050   437.39261     -924.66957      837.99574      4341.4985    
     19060   421.7192      -924.34324     -875.9538       4348.2815    
     19070   373.88053     -923.11023     -2153.4131      4354.5788    
     19080   417.46357     -924.40761     -3164.7472      4359.784     
     19090   445.63833     -925.29198     -3710.2926      4363.4426    
     19100   441.97417     -925.31521     -3905.2457      4365.311     
     19110   464.687       -926.10428     -3910.7491      4365.3156    
     19120   442.8386      -925.68482     -3489.1         4363.4943    
     19130   405.80433     -924.83872     -2858.0327      4360.0674    
     19140   408.19281     -925.06989     -2289.744       4355.3493    
     19150   397.99081     -924.93111     -1273.0675      4349.6556    
     19160   389.56034     -924.81034      268.40864      4343.4863    
     19170   404.38127     -925.31194      1822.4211      4337.5512    
     19180   396.80307     -925.17222      3111.9565      4332.5621    
     19190   402.32577     -925.38462      3875.4842      4329.0892    
     19200   410.97104     -925.68163      4166.227       4327.4631    
     19210   390.73595     -925.17546      4039.5122      4327.7905    
     19220   381.83671     -924.97598      3424.2034      4329.9798    
     19230   394.02048     -925.35422      2458.2703      4333.7255    
     19240   383.92489     -925.1022       1438.5394      4338.5723    
     19250   399.02222     -925.54194      343.40109      4344.0296    
     19260   401.11357     -925.61228     -890.65859      4349.5749    
     19270   406.34007     -925.76757     -2089.5537      4354.6339    
     19280   409.64537     -925.87053     -2940.7294      4358.6603    
     19290   401.96695     -925.67402     -3467.5394      4361.2609    
     19300   388.56027     -925.3197      -3651.5961      4362.2058    
     19310   412.31169     -925.99999     -3490.6947      4361.429     
     19320   430.22905     -926.52878     -2881.8788      4359.038     
     19330   419.70782     -926.28435     -2065.2804      4355.3356    
     19340   389.73044     -925.50897     -1297.2728      4350.7176    
     19350   342.53069     -924.2399      -462.56959      4345.5663    
     19360   366.39298     -924.92112      536.76384      4340.2853    
     19370   399.79591     -925.84896      1774.5931      4335.3489    
     19380   366.43889     -924.9116       3004.4014      4331.3196    
     19390   361.8937      -924.76129      3717.0245      4328.7327    
     19400   408.11196     -926.00634      3948.7567      4327.8991    
     19410   403.14081     -925.82388      4029.7833      4328.9195    
     19420   400.21698     -925.70211      3488.1516      4331.7861    
     19430   418.2673      -926.15888      2227.0549      4336.224     
     19440   415.93231     -926.04607      789.32297      4341.6514    
     19450   393.8673      -925.38228     -413.9998       4347.4022    
     19460   388.21989     -925.16242     -1502.3456      4352.9025    
     19470   422.27143     -926.02626     -2623.002       4357.6348    
     19480   444.13297     -926.54338     -3472.8944      4361.0888    
     19490   398.46447     -925.19466     -3758.0464      4362.8888    
     19500   383.34567     -924.69803     -3821.7951      4362.9009    
     19510   419.18233     -925.60086     -3660.8557      4361.1167    
     19520   396.84101     -924.87669     -2954.2698      4357.6522    
     19530   358.67348     -923.70768     -1924.4696      4352.8557    
     19540   388.38625     -924.39675     -756.50355      4347.2237    
     19550   390.13105     -924.27146      786.9108       4341.3324    
     19560   405.39104     -924.5064       2299.6408      4335.8912    
     19570   434.79048     -925.12275      3557.3659      4331.5912    
     19580   432.45426     -924.87496      4578.4488      4329.004     
     19590   458.80737     -925.45881      4858.8629      4328.5602    
     19600   498.36706     -926.45449      4375.4553      4330.3634    
     19610   444.67786     -924.92107      3636.2993      4334.1925    
     19620   429.72995     -924.50442      2139.1414      4339.6577    
     19630   452.3833      -925.14953      255.01636      4346.0646    
     19640   414.82223     -924.13787     -1481.868       4352.5426    
     19650   383.90628     -923.30917     -3016.3873      4358.2721    
     19660   415.24299     -924.20806     -4145.4459      4362.5371    
     19670   400.68536     -923.83708     -4426.5735      4364.8357    
     19680   406.81948     -924.04795     -4323.5346      4365.0307    
     19690   451.0972      -925.33841     -3936.2425      4363.1879    
     19700   425.39085     -924.71134     -2809.7703      4359.5393    
     19710   410.99811     -924.40973     -1520.1393      4354.6167    
     19720   443.69139     -925.4338      -540.61064      4349.0236    
     19730   409.07779     -924.60242      787.31265      4343.2656    
     19740   404.43689     -924.59902      2125.7541      4337.9509    
     19750   456.94463     -926.20444      2962.3491      4333.6769    
     19760   412.85148     -925.14946      3594.509       4330.8362    
     19770   370.84925     -924.13076      3784.4754      4329.6937    
     19780   437.49553     -926.12929      3412.9611      4330.3111    
     19790   421.45793     -925.84381      3129.3252      4332.5305    
     19800   367.9988      -924.49078      2456.1794      4336.1852    
     19810   415.99359     -925.93349      996.58807      4340.9294    
     19820   414.55198     -925.99116     -186.74338      4346.1221    
     19830   379.6034      -925.09531     -1168.6552      4351.1988    
     19840   405.69352     -925.8759      -2498.4392      4355.6689    
     19850   391.03886     -925.51196     -3460.6714      4358.9417    
     19860   354.12258     -924.51232     -3746.3333      4360.5807    
     19870   392.0425      -925.57736     -3654.7329      4360.448     
     19880   408.57761     -926.04454     -3055.5473      4358.6125    
     19890   377.33774     -925.18337     -2132.6654      4355.3683    
     19900   399.1165      -925.79079     -1297.7881      4351.1475    
     19910   394.71702     -925.66374     -227.65535      4346.3732    
     19920   380.85094     -925.26771      934.586        4341.5475    
     19930   400.3421      -925.78942      1903.1048      4337.2057    
     19940   412.01129     -926.09237      2660.803       4333.7945    
     19950   397.07796     -925.6608       3270.2817      4331.6621    
     19960   408.73751     -925.97403      3321.6577      4331.0606    
     19970   406.43542     -925.90507      2996.9047      4332.009     
     19980   388.57623     -925.40825      2583.4802      4334.3565    
     19990   393.36797     -925.53856      1819.9124      4337.8884    
     20000   387.31266     -925.36024      763.14575      4342.2441    
     20010   381.98687     -925.19244     -373.58438      4346.9317    
     20020   397.21787     -925.58372     -1481.4761      4351.4174    
     20030   403.15832     -925.71055     -2359.7523      4355.1874    
     20040   374.35093     -924.86871     -2924.5838      4357.8325    
     20050   375.85502     -924.86039     -3271.6164      4359.0868    
     20060   404.32271     -925.58653     -3239.6219      4358.8017    
     20070   410.61177     -925.6904      -2623.49        4357.0142    
     20080   396.83193     -925.23578     -1658.9084      4354.0191    
     20090   418.40944     -925.75709     -784.20719      4350.2649    
     20100   456.22665     -926.72658      39.333728      4346.1734    
     20110   407.34891     -925.30061      1068.8697      4342.1518    
     20120   387.86665     -924.69918      1724.6937      4338.6531    
     20130   413.90225     -925.351        2027.5789      4335.9825    
     20140   390.51489     -924.62123      2299.3549      4334.2882    
     20150   366.66203     -923.87051      2472.1081      4333.6859    
     20160   413.08246     -925.04664      2453.529       4334.2429    
     20170   419.34091     -925.08181      2431.5013      4335.9553    
     20180   432.02466     -925.29326      1994.7754      4338.7873    
     20190   448.26618     -925.60089      1158.8657      4342.5325    
     20200   438.38571     -925.19405      108.5652       4346.8006    
     20210   431.10364     -924.87422     -909.58976      4351.1072    
     20220   416.80848     -924.36904     -1836.5406      4354.9699    
     20230   390.72672     -923.54074     -2487.9038      4357.9609    
     20240   430.82382     -924.54638     -2974.4198      4359.767     
     20250   460.02009     -925.24887     -3064.9096      4360.1747    
     20260   435.38993     -924.4838      -2748.5283      4359.1487    
     20270   421.25307     -924.03503     -2242.8303      4356.8391    
     20280   415.34601     -923.82431     -1565.2608      4353.4939    
     20290   423.20995     -924.00038     -664.54516      4349.4444    
     20300   454.91588     -924.84746      390.58436      4345.12      
     20310   443.35803     -924.51545      1528.9225      4341.0173    
     20320   417.86022     -923.81849      2442.2641      4337.6574    
     20330   461.6309      -925.07256      2831.9363      4335.4488    
     20340   449.73748     -924.82516      2930.7515      4334.5779    
     20350   409.58878     -923.82937      2780.4628      4335.0847    
     20360   437.32598     -924.7556       2255.7791      4336.8841    
     20370   433.52465     -924.85299      1690.3982      4339.7416    
     20380   414.82201     -924.56209      1008.1261      4343.3854    
     20390   442.2198      -925.57939     -35.9949        4347.4809    
     20400   433.88454     -925.62237     -1120.1004      4351.55      
     20410   415.58779     -925.36953     -2201.3224      4355.0796    
     20420   391.93492     -924.92964     -3055.9131      4357.5671    
     20430   340.49531     -923.65126     -3360.1811      4358.6237    
     20440   359.14951     -924.26545     -3292.2419      4358.1       
     20450   403.11232     -925.56051     -2835.945       4356.0381    
     20460   386.61006     -925.16127     -1821.327       4352.6713    
     20470   406.33404     -925.75514     -503.33517      4348.4778    
     20480   459.38643     -927.28122      685.39935      4344.0683    
     20490   421.79471     -926.30615      1721.9003      4340.0068    
     20500   392.57643     -925.56346      2348.2472      4336.7647    
     20510   422.07531     -926.45339      2559.724       4334.6291    
     20520   402.35927     -925.981        2695.7316      4333.7099    
     20530   376.57223     -925.33549      2448.004       4334.0495    
     20540   368.38559     -925.1664       1801.0775      4335.5259    
     20550   345.9735      -924.5794       1182.5851      4337.852     
     20560   370.18769     -925.26513      571.32194      4340.7324    
     20570   399.51826     -926.07746     -29.357167      4343.8796    
     20580   380.59377     -925.54176     -512.72099      4347.0158    
     20590   382.73949     -925.58387     -1033.8716      4349.9046    
     20600   401.08374     -926.06635     -1524.2931      4352.3037    
     20610   401.99497     -926.06095     -1889.4898      4353.986     
     20620   410.5844      -926.27181     -2201.0668      4354.775     
     20630   392.4093      -925.74224     -2221.8496      4354.5366    
     20640   364.93855     -924.95083     -1885.1031      4353.2665    
     20650   382.57246     -925.39824     -1402.4653      4351.1177    
     20660   397.86653     -925.7635      -683.57766      4348.3273    
     20670   399.54667     -925.74037      299.66389      4345.2412    
     20680   428.61118     -926.47304      1081.3787      4342.304     
     20690   427.28726     -926.36571      1530.1051      4339.8786    
     20700   390.75127     -925.29127      1748.2257      4338.1791    
     20710   398.59073     -925.4494       1711.2273      4337.3014    
     20720   404.09477     -925.53476      1641.3062      4337.2367    
     20730   360.71965     -924.257        1512.3572      4337.9487    
     20740   353.75832     -923.97517      1101.0209      4339.3641    
     20750   400.13585     -925.13969      674.98065      4341.3006    
     20760   424.49711     -925.66542      504.26599      4343.5703    
     20770   421.84309     -925.44098      238.13966      4346.0765    
     20780   418.43303     -925.20401     -338.702        4348.6858    
     20790   421.82664     -925.1624      -1090.5697      4351.1307    
     20800   427.0047      -925.17973     -1659.2839      4353.0692    
     20810   407.32751     -924.51993     -1736.0093      4354.2466    
     20820   406.69547     -924.40017     -1726.1994      4354.6085    
     20830   436.39076     -925.12663     -1793.4022      4354.1516    
     20840   434.53828     -924.9909      -1445.9646      4352.87      
     20850   441.40653     -925.12116     -849.21686      4350.9201    
     20860   447.20775     -925.24423     -93.687282      4348.5852    
     20870   446.94217     -925.22656      464.63794      4346.207     
     20880   439.77453     -925.04473      731.86935      4344.0478    
     20890   428.81534     -924.78385      770.16084      4342.2334    
     20900   386.11712     -923.65402      857.97936      4340.794     
     20910   366.02725     -923.14554      880.73543      4339.764     
     20920   385.64058     -923.73195      903.27821      4339.1544    
     20930   388.87732     -923.85685      1222.8788      4338.9902    
     20940   423.6762      -924.86426      1516.3173      4339.4076    
     20950   450.02098     -925.66356      1570.7683      4340.5354    
     20960   435.55548     -925.37218      1403.6948      4342.4028    
     20970   442.94483     -925.73881      844.35219      4344.9241    
     20980   454.67285     -926.29664     -20.259972      4347.84      
     20990   430.281       -925.91471     -944.0315       4350.753     
     21000   407.69978     -925.60617     -1757.2616      4353.2316    
     21010   379.39532     -925.11297     -2275.1097      4354.8958    
     21020   370.5366      -925.09838     -2464.949       4355.4999    
     21030   393.07561     -925.90775     -2487.1055      4354.9447    
     21040   382.49501     -925.75651     -2207.0955      4353.2263    
     21050   351.04643     -924.97723     -1555.9623      4350.4818    
     21060   368.64365     -925.52305     -688.55772      4347.0141    
     21070   380.46429     -925.88344      275.50012      4343.2308    
     21080   378.87455     -925.8539       1137.3551      4339.5795    
     21090   389.34714     -926.14838      1847.9719      4336.4638    
     21100   382.11        -925.94212      2448.1448      4334.22      
     21110   382.67538     -925.94579      2702.0956      4333.1181    
     21120   389.43183     -926.11605      2642.8036      4333.2791    
     21130   372.51371     -925.62131      2417.9285      4334.6846    
     21140   400.39311     -926.36388      1843.4139      4337.2209    
     21150   420.85846     -926.89694      1136.7396      4340.6329    
     21160   382.41544     -925.79671      333.40973      4344.5925    
     21170   401.57421     -926.29403     -852.33137      4348.7074    
     21180   408.80713     -926.4541      -1869.1582      4352.4414    
     21190   345.4665      -924.65047     -2433.6921      4355.3237    
     21200   366.6118      -925.18036     -3154.0022      4357.0499    
     21210   404.58525     -926.15393     -3398.7369      4357.3042    
     21220   356.30963     -924.72532     -2749.4605      4355.9865    
     21230   368.57494     -924.9704      -1982.2503      4353.3674    
     21240   413.88885     -926.10625     -1183.7177      4349.8091    
     21250   382.63424     -925.10697      18.286331      4345.7105    
     21260   404.62714     -925.58905      1015.3809      4341.6108    
     21270   437.19785     -926.35641      1816.8328      4337.9827    
     21280   391.63071     -924.9704       2621.0905      4335.2152    
     21290   400.67011     -925.11653      2857.3477      4333.6584    
     21300   439.57009     -926.09401      2709.9774      4333.4331    
     21310   402.28365     -924.97302      2626.555       4334.4959    
     21320   398.46709     -924.79938      2105.5567      4336.7861    
     21330   428.61649     -925.57097      1192.7148      4340.0667    
     21340   408.99795     -924.96885      320.14608      4343.9329    
     21350   407.46829     -924.87988     -606.33404      4347.9684    
     21360   403.19057     -924.71581     -1377.1347      4351.7457    
     21370   413.11502     -924.94965     -1997.036       4354.8947    
     21380   428.03721     -925.32918     -2504.7977      4357.1171    
     21390   427.01326     -925.28236     -2836.7838      4358.1668    
     21400   403.99372     -924.63936     -2726.6227      4357.8959    
     21410   401.92895     -924.58715     -2403.6783      4356.3383    
     21420   387.20701     -924.18159     -1828.54        4353.6493    
     21430   406.17308     -924.70908     -1089.3445      4350.0932    
     21440   427.13293     -925.29278      0.35584219     4346.0316    
     21450   430.02237     -925.38616      1082.1142      4341.9626    
     21460   435.05572     -925.5603       1927.7876      4338.388     
     21470   407.2773      -924.84409      2567.9966      4335.7104    
     21480   397.11706     -924.6297       2859.1966      4334.2261    
     21490   437.70373     -925.84983      2707.9972      4334.0708    
     21500   426.3232      -925.66985      2317.2784      4335.1875    
     21510   378.02437     -924.4881       1900.477       4337.411     
     21520   404.70021     -925.4078       1137.215       4340.5351    
     21530   424.10499     -926.1684       159.6401       4344.214     
     21540   376.81314     -925.086       -849.46238      4347.9958    
     21550   372.79182     -925.18647     -1794.1216      4351.4038    
     21560   376.11507     -925.47224     -2320.8509      4354.0034    
     21570   366.01716     -925.35388     -2458.4716      4355.5363    
     21580   382.34375     -925.9399      -2582.323       4355.9118    
     21590   400.34932     -926.55619     -2537.3541      4355.0711    
     21600   380.89838     -926.11291     -1933.9121      4353.0475    
     21610   382.29171     -926.22551     -1161.5121      4350.1041    
     21620   393.61806     -926.59828     -526.61247      4346.5909    
     21630   367.49235     -925.91284      165.07867      4342.8163    
     21640   361.68601     -925.77017      997.56911      4339.1085    
     21650   386.24024     -926.45152      1924.4482      4335.8594    
     21660   395.73132     -926.70558      2630.7485      4333.4945    
     21670   372.71308     -926.05299      2856.7054      4332.341     
     21680   362.37447     -925.74429      2609.1608      4332.513     
     21690   372.71255     -925.99691      2223.5575      4333.9179    
     21700   357.50772     -925.52553      1813.5986      4336.3913    
     21710   364.59427     -925.65879      961.9067       4339.7298    
     21720   398.32955     -926.51353     -57.082612      4343.5534    
     21730   384.57927     -926.0414      -781.54297      4347.4048    
     21740   372.27363     -925.6089      -1317.5738      4350.9348    
     21750   403.12036     -926.36639     -1910.2449      4353.8743    
     21760   420.3741      -926.74456     -2398.0592      4355.9408    
     21770   392.62789     -925.88656     -2573.1981      4356.9035    
     21780   392.91692     -925.81867     -2661.9269      4356.6541    
     21790   368.56659     -925.0657      -2443.5007      4355.1512    
     21800   362.92574     -924.829       -2007.7704      4352.4813    
     21810   391.66278     -925.53401     -1312.6868      4348.8441    
     21820   384.69784     -925.24009     -220.32501      4344.5687    
     21830   363.02637     -924.53707      1084.5818      4340.1618    
     21840   408.46873     -925.69142      2108.5279      4336.2162    
     21850   426.46519     -926.08245      3069.2206      4333.2326    
     21860   421.53823     -925.86218      3710.604       4331.6603    
     21870   440.61691     -926.33641      3612.7335      4331.7987    
     21880   421.17856     -925.76874      3049.1759      4333.635     
     21890   388.4285      -924.84705      2179.3795      4336.9343    
     21900   415.86603     -925.6001       866.98051      4341.2979    
     21910   405.3874      -925.30101     -405.44883      4346.1449    
     21920   359.29979     -924.00891     -1554.9545      4350.8796    
     21930   381.24119     -924.59306     -2547.4615      4354.9519    
     21940   411.33055     -925.39416     -3014.0153      4357.8927    
     21950   401.10918     -925.0802      -3030.9586      4359.4585    
     21960   424.58376     -925.71402     -3162.218       4359.5933    
     21970   418.16984     -925.53113     -2982.5931      4358.2344    
     21980   388.50233     -924.71239     -2276.9155      4355.4551    
     21990   396.30168     -924.93226     -1414.7064      4351.5566    
     22000   408.65035     -925.27505     -390.71737      4346.937     
     22010   398.64274     -924.99471      867.43803      4342.0787    
     22020   419.94627     -925.58451      2007.3153      4337.5589    
     22030   437.5632      -926.08184      2934.6085      4333.9192    
     22040   421.8074      -925.67033      3558.4603      4331.6068    
     22050   409.25231     -925.36213      3571.0725      4330.9218    
     22060   402.35167     -925.21773      3207.0285      4331.9097    
     22070   396.46687     -925.10195      2644.6915      4334.4355    
     22080   419.93495     -925.80404      1580.3059      4338.2513    
     22090   407.35008     -925.51021      194.71043      4342.8866    
     22100   358.29707     -924.19212     -884.80031      4347.7292    
     22110   372.71385     -924.61873     -1867.821       4352.2555    
     22120   387.86398     -925.04858     -2672.5442      4355.9935    
     22130   392.56311     -925.18213     -3179.8745      4358.543     
     22140   404.18972     -925.50615     -3251.7671      4359.6426    
     22150   430.41562     -926.24551     -3036.5769      4359.2172    
     22160   406.48198     -925.60447     -2413.9224      4357.3484    
     22170   402.20743     -925.51726     -1765.5358      4354.2872    
     22180   426.78963     -926.23977     -1196.0958      4350.3172    
     22190   401.26392     -925.58262     -295.8109       4345.7119    
     22200   360.54508     -924.50011      947.71763      4340.8879    
     22210   383.73639     -925.1824       2048.7014      4336.4111    
     22220   417.90463     -926.17203      2865.6035      4332.8055    
     22230   412.15407     -926.07574      3481.2987      4330.4791    
     22240   398.77802     -925.79679      3728.1926      4329.7447    
     22250   403.0018      -926.04613      3369.1092      4330.7441    
     22260   377.62731     -925.50799      2626.1019      4333.3621    
     22270   375.46345     -925.6379       1401.0536      4337.2817    
     22280   369.14022     -925.66912      47.126686      4341.97      
     22290   330.91351     -924.79311     -949.97457      4346.8248    
     22300   355.00635     -925.61887     -1918.9845      4351.3555    
     22310   389.5153      -926.72902     -2719.5595      4355.0946    
     22320   361.0824      -926.07325     -3119.0584      4357.6465    
     22330   362.2381      -926.21353     -3338.9253      4358.7745    
     22340   391.89594     -927.13388     -3263.3391      4358.3398    
     22350   382.56139     -926.96223     -2665.2713      4356.3507    
     22360   385.85146     -927.13006     -1874.5327      4353.0413    
     22370   394.81106     -927.44888     -1055.1829      4348.753     
     22380   353.06154     -926.34228     -15.704794      4343.8666    
     22390   349.7218      -926.2766       1001.1047      4338.8525    
     22400   366.17986     -926.73653      1914.1834      4334.1894    
     22410   333.90313     -925.81743      2830.9656      4330.3266    
     22420   341.17892     -925.97305      3396.5738      4327.6982    
     22430   361.74952     -926.4687       3769.6727      4326.6136    
     22440   357.19981     -926.24583      3869.2405      4327.2851    
     22450   371.67857     -926.5352       3378.6732      4329.7952    
     22460   388.30836     -926.86586      2231.205       4333.9604    
     22470   357.20309     -925.86244      908.63263      4339.306     
     22480   340.32384     -925.24921     -412.07629      4345.2417    
     22490   363.20185     -925.71885     -1727.4364      4351.1499    
     22500   379.12767     -925.98001     -2730.6638      4356.4111    
     22510   397.64923     -926.3205      -3401.4395      4360.5197    
     22520   418.96895     -926.75958     -3767.9777      4363.1166    
     22530   436.35618     -927.12345     -3875.2009      4363.9802    
     22540   437.63004     -927.08208     -3820.8779      4363.0073    
     22550   395.17198     -925.86149     -3502.911       4360.1834    
     22560   356.59294     -924.76034     -2782.0167      4355.6247    
     22570   354.74661     -924.66884     -1607.1252      4349.6413    
     22580   354.37813     -924.59621      9.4390429      4342.7696    
     22590   369.41952     -924.92995      1712.2998      4335.7496    
     22600   378.57795     -925.08216      3300.8189      4329.3822    
     22610   374.70958     -924.86501      4710.008       4324.4341    
     22620   394.7259      -925.30969      5639.9652      4321.5894    
     22630   435.70833     -926.34439      5839.675       4321.3218    
     22640   436.58534     -926.29242      5343.4766      4323.7906    
     22650   416.32002     -925.68668      4192.2681      4328.8322    
     22660   417.66127     -925.69773      2524.8487      4335.9746    
     22670   412.69995     -925.53683      429.60802      4344.4842    
     22680   403.15717     -925.24498     -1870.7414      4353.4041    
     22690   398.79828     -925.08941     -3941.8526      4361.6536    
     22700   392.27779     -924.86879     -5371.0098      4368.2268    
     22710   391.69139     -924.81347     -6091.4129      4372.3874    
     22720   411.24392     -925.32405     -6311.2919      4373.7163    
     22730   426.23499     -925.72393     -6027.7979      4372.0464    
     22740   408.30105     -925.23008     -5105.9429      4367.4645    
     22750   387.91087     -924.67588     -3544.5134      4360.3698    
     22760   399.55253     -925.00325     -1585.3832      4351.4691    
     22770   407.22785     -925.20694      652.12888      4341.6785    
     22780   389.75554     -924.69885      2926.3814      4332.0473    
     22790   387.67374     -924.6042       4960.8429      4323.6457    
     22800   409.64838     -925.16876      6606.3531      4317.4437    
     22810   429.00468     -925.67091      7585.7566      4314.2314    
     22820   414.39869     -925.25489      7603.8977      4314.4995    
     22830   421.4676      -925.46919      6550.6549      4318.3095    
     22840   415.16469     -925.32998      4818.7638      4325.2521    
     22850   415.41287     -925.38285      2651.0867      4334.5853    
     22860   418.68093     -925.52178      155.32895      4345.3349    
     22870   406.6817      -925.23556     -2446.2222      4356.3467    
     22880   398.5149      -925.05323     -4895.5544      4366.3815    
     22890   402.22442     -925.20738     -6742.7547      4374.2497    
     22900   394.98986     -925.07709     -7690.9319      4379.0243    
     22910   390.51964     -925.04752     -7879.1808      4380.185     
     22920   403.58378     -925.53559     -7468.9152      4377.5818    
     22930   387.9778      -925.25196     -6194.5724      4371.3867    
     22940   367.31645     -924.82601     -4077.0416      4362.1868    
     22950   395.52272     -925.74495     -1484.5454      4350.9706    
     22960   405.55253     -926.15118      1272.0564      4338.9618    
     22970   362.0068      -925.0427       3905.8844      4327.4603    
     22980   376.00316     -925.50552      6018.5909      4317.6908    
     22990   402.58185     -926.31591      7830.3342      4310.6609    
     23000   394.51743     -926.17442      9029.8567      4307.2143    
     23010   407.78289     -926.65098      8949.0947      4307.9049    
     23020   391.7143      -926.33479      7641.4915      4312.7397    
     23030   364.92659     -925.71761      5514.637       4321.178     
     23040   386.51113     -926.42429      2801.6169      4332.2846    
     23050   392.69705     -926.68089     -227.82641      4344.8291    
     23060   343.43693     -925.35718     -3161.0403      4357.4077    
     23070   352.05352     -925.59993     -5890.2852      4368.6098    
     23080   371.15157     -926.10626     -7805.7219      4377.1232    
     23090   364.04589     -925.87894     -8679.9495      4381.9932    
     23100   363.94036     -925.84904     -8788.6745      4382.7467    
     23110   382.50267     -926.34242     -8166.4652      4379.3006    
     23120   363.90101     -925.80075     -6428.3224      4371.9617    
     23130   374.13658     -926.04353     -3928.3288      4361.5485    
     23140   403.59806     -926.78146     -1003.5572      4349.2551    
     23150   398.54415     -926.52445      2016.7141      4336.4708    
     23160   388.72414     -926.10907      4661.4367      4324.6081    
     23170   378.66986     -925.66529      6753.7467      4314.8977    
     23180   371.31309     -925.28472      8272.6242      4308.3067    
     23190   369.68046     -925.05893      9037.8601      4305.5266    
     23200   385.92094     -925.33264      8833.809       4306.9077    
     23210   408.23735     -925.78247      7706.5118      4312.3765    
     23220   409.49438     -925.66721      5746.9223      4321.445     
     23230   424.26717     -925.94729      2912.2969      4333.227     
     23240   414.95788     -925.56961     -165.82168      4346.4439    
     23250   376.10936     -924.37932     -3134.8748      4359.6591    
     23260   387.66432     -924.58481     -5918.5955      4371.4473    
     23270   426.65614     -925.55378     -8073.5382      4380.4694    
     23280   409.43699     -924.99228     -9078.1365      4385.6863    
     23290   413.87024     -925.07511     -9208.8542      4386.5773    
     23300   428.91172     -925.49199     -8427.4315      4383.0752    
     23310   387.07595     -924.35499     -6614.8648      4375.5743    
     23320   407.33939     -924.94704     -4470.565       4364.9317    
     23330   439.69553     -925.87081     -1745.9547      4352.2136    
     23340   373.69784     -924.04615      1657.4928      4338.7453    
     23350   377.35019     -924.12379      4569.2154      4326.0905    
     23360   447.16506     -926.02385      6804.7682      4315.5993    
     23370   408.73019     -924.93071      8806.3956      4308.3153    
     23380   400.7978      -924.70962      9633.487       4305.0977    
     23390   445.40775     -925.98442      9161.8439      4306.3066    
     23400   386.56798     -924.41715      8134.1761      4311.7575    
     23410   395.66769     -924.74671      6055.2172      4320.9584    
     23420   463.44563     -926.71081      3121.7016      4332.9681    
     23430   421.89997     -925.64378      177.16544      4346.4632    
     23440   397.95545     -925.04919     -2971.0304      4360.0439    
     23450   432.44518     -926.06786     -6177.6056      4372.2054    
     23460   380.82033     -924.69289     -8376.2714      4381.4474    
     23470   352.3227      -923.95489     -9711.3574      4386.6877    
     23480   384.31307     -924.90916     -10132.601      4387.2817    
     23490   364.65314     -924.44423     -9029.8912      4383.0718    
     23500   369.39491     -924.65557     -6777.1964      4374.6063    
     23510   435.64644     -926.57158     -4036.3284      4362.9791    
     23520   415.51732     -926.08196     -756.17708      4349.5483    
     23530   385.24552     -925.28947      2526.0683      4335.8733    
     23540   421.96318     -926.33988      5222.5606      4323.4777    
     23550   422.64537     -926.39876      7480.1564      4313.6098    
     23560   370.71985     -925.00612      9115.4689      4307.2762    
     23570   402.05532     -925.94818      9329.3054      4305.1545    
     23580   400.01307     -925.99633      8617.9841      4307.3341    
     23590   364.84216     -925.14105      7326.4675      4313.4827    
     23600   388.17477     -925.91394      5074.4024      4322.979     
     23610   397.2857      -926.28969      2174.3492      4334.7885    
     23620   355.29571     -925.2221      -725.37595      4347.5824    
     23630   366.19414     -925.5915      -3601.9299      4359.985     
     23640   396.60809     -926.48881     -6027.1315      4370.6417    
     23650   378.51374     -926.04342     -7662.8243      4378.4031    
     23660   362.77924     -925.67344     -8720.0456      4382.4757    
     23670   368.77344     -925.92477     -8916.239       4382.3823    
     23680   348.88145     -925.47043     -7910.4715      4378.0761    
     23690   350.1736      -925.60076     -6003.2466      4370.0719    
     23700   390.65415     -926.81032     -3576.92        4359.3147    
     23710   381.53264     -926.6258      -573.69015      4347.0083    
     23720   371.69339     -926.39311      2530.5437      4334.5798    
     23730   412.28577     -927.54605      5093.5207      4323.4601    
     23740   390.71425     -926.9757       7044.4581      4314.8197    
     23750   344.58724     -925.72584      8115.0377      4309.5115    
     23760   358.43856     -926.14463      8152.4776      4307.9755    
     23770   360.18602     -926.2282       7601.0194      4310.2091    
     23780   353.32205     -926.06688      6422.7035      4315.9283    
     23790   381.41776     -926.86215      4359.7206      4324.5585    
     23800   364.84533     -926.3889       1965.7848      4335.1573    
     23810   344.4086      -925.77293     -616.66139      4346.6023    
     23820   370.72626     -926.40763     -3325.4795      4357.6709    
     23830   361.99623     -926.02385     -5404.9929      4367.1114    
     23840   345.06929     -925.39143     -6790.6704      4373.9354    
     23850   373.4008      -925.9955      -7640.9931      4377.4851    
     23860   379.54255     -925.97106     -7577.0959      4377.3965    
     23870   372.90456     -925.60626     -6591.1339      4373.7375    
     23880   410.86364     -926.48846     -5050.1436      4367.0069    
     23890   410.59059     -926.31671     -2793.2829      4357.9952    
     23900   388.00278     -925.54592     -184.3953       4347.7959    
     23910   437.33057     -926.77627      2105.4771      4337.6302    
     23920   443.18979     -926.80984      4182.6704      4328.5799    
     23930   391.59418     -925.2803       5795.866       4321.5829    
     23940   384.86183     -925.01693      6381.6321      4317.3292    
     23950   380.15674     -924.81796      6231.5316      4316.0627    
     23960   345.56146     -923.79356      5827.8022      4317.6991    
     23970   370.6631      -924.42261      4899.3562      4322.0103    
     23980   391.70736     -924.92255      3536.2734      4328.5511    
     23990   379.55499     -924.4938       1944.6948      4336.6828    
     24000   415.33231     -925.38721      137.77847      4345.6523    
     24010   452.45307     -926.31162     -1658.5052      4354.6148    
     24020   429.84925     -925.59598     -3265.583       4362.7287    
     24030   435.78872     -925.69807     -4902.6926      4369.2211    
     24040   428.70778     -925.4607      -6096.5247      4373.3418    
     24050   398.84202     -924.61463     -6358.7081      4374.5618    
     24060   416.84711     -925.11592     -5968.5799      4372.7704    
     24070   426.14757     -925.39293     -5001.0996      4368.188     
     24080   394.00851     -924.52957     -3464.383       4361.3155    
     24090   416.48576     -925.18302     -1617.4166      4352.9058    
     24100   431.48555     -925.62929      504.17938      4343.8583    
     24110   390.26674     -924.51225      2620.8305      4335.1718    
     24120   397.22371     -924.72776      4109.3086      4327.8011    
     24130   416.23282     -925.28168      5125.4829      4322.4253    
     24140   396.19775     -924.76246      5901.9221      4319.4971    
     24150   395.67085     -924.79818      5970.7583      4319.3206    
     24160   392.23343     -924.76384      5269.154       4321.8964    
     24170   373.9769      -924.31997      4135.0804      4326.8881    
     24180   385.20892     -924.68747      2787.6712      4333.7606    
     24190   438.57024     -926.22578      1128.4834      4341.8683    
     24200   451.87978     -926.67326     -605.3706       4350.4382    
     24210   430.04323     -926.17437     -2397.7406      4358.649     
     24220   416.31581     -925.92406     -4200.1422      4365.6537    
     24230   415.20234     -926.04914     -5720.1626      4370.6127    
     24240   390.11464     -925.53274     -6542.6714      4372.8343    
     24250   352.39875     -924.66265     -6484.6337      4371.9586    
     24260   348.36241     -924.71313     -5587.2329      4368.0458    
     24270   358.77977     -925.14425     -3931.6673      4361.5635    
     24280   384.71684     -925.98615     -1948.6622      4353.318     
     24290   406.25641     -926.69094      173.87235      4344.2709    
     24300   396.5136      -926.51312      2262.5456      4335.4281    
     24310   381.50449     -926.17001      3966.5263      4327.7488    
     24320   377.88069     -926.12851      5061.5537      4321.9957    
     24330   357.25513     -925.59972      5757.2542      4318.6577    
     24340   353.54376     -925.5254       5978.5781      4318.0184    
     24350   375.50652     -926.15389      5591.8172      4320.1437    
     24360   374.11341     -926.12433      4585.227       4324.8294    
     24370   383.78049     -926.39221      2986.7626      4331.59      
     24380   391.40473     -926.5892       1134.9715      4339.6812    
     24390   378.67263     -926.20501     -672.31895      4348.2409    
     24400   396.41143     -926.65214     -2556.3954      4356.4065    
     24410   394.10691     -926.53066     -4234.5101      4363.3009    
     24420   379.01212     -926.05161     -5434.3851      4368.1438    
     24430   387.22669     -926.22039     -5995.0194      4370.3859    
     24440   366.49439     -925.58608     -5838.2443      4369.7874    
     24450   332.5538      -924.58152     -5121.5991      4366.4493    
     24460   372.70705     -925.61652     -4044.9186      4360.7381    
     24470   389.88291     -925.98514     -2265.583       4353.2178    
     24480   365.60737     -925.19085      41.889136      4344.7525    
     24490   399.30626     -925.99296      2136.0167      4336.4108    
     24500   421.34961     -926.46139      3845.3264      4329.1657    
     24510   394.08863     -925.58223      5115.2137      4323.7949    
     24520   404.04281     -925.76414      5632.3257      4320.8436    
     24530   396.12984     -925.47223      5638.7718      4320.5316    
     24540   376.16108     -924.86852      5142.1533      4322.8301    
     24550   401.84373     -925.5452       4132.6421      4327.487     
     24560   421.73681     -926.07169      2702.9345      4334.0176    
     24570   401.35587     -925.49036      1083.6817      4341.7549    
     24580   408.47358     -925.67486     -854.29082      4349.9247    
     24590   409.47171     -925.68592     -2758.5684      4357.6248    
     24600   390.35558     -925.1366      -4268.2662      4363.9708    
     24610   392.79816     -925.18592     -5379.6396      4368.2511    
     24620   387.63521     -925.02646     -5853.9096      4369.9626    
     24630   370.48588     -924.53661     -5510.2651      4368.9117    
     24640   388.31721     -925.01524     -4543.4408      4365.2852    
     24650   427.31069     -926.07955     -3245.6945      4359.5629    
     24660   413.46892     -925.68207     -1480.6801      4352.3998    
     24670   386.83088     -924.92875      426.52072      4344.6366    
     24680   416.27636     -925.72465      2085.5075      4337.164     
     24690   425.58228     -925.96198      3549.7047      4330.7572    
     24700   386.38452     -924.85845      4731.2753      4326.0805    
     24710   412.80306     -925.58485      5079.9707      4323.6316    
     24720   414.57093     -925.63718      5014.5171      4323.5657    
     24730   370.73047     -924.43163      4617.12        4325.8305    
     24740   393.32535     -925.06852      3387.9936      4330.197     
     24750   416.9208      -925.72785      1854.7557      4336.1015    
     24760   372.00475     -924.47879      643.8831       4342.8473    
     24770   399.88773     -925.24142     -806.05488      4349.8319    
     24780   445.29963     -926.48344     -2299.5302      4356.3798    
     24790   418.86161     -925.74329     -3363.2273      4361.8084    
     24800   412.35555     -925.57366     -4260.6081      4365.6048    
     24810   415.872       -925.69684     -4886.8202      4367.359     
     24820   393.60331     -925.11857     -4931.9365      4366.8041    
     24830   383.62374     -924.88812     -4382.1915      4363.9424    
     24840   392.00582     -925.16887     -3338.4076      4359.0576    
     24850   381.17511     -924.91048     -1806.8685      4352.6727    
     24860   378.79568     -924.87433     -95.052765      4345.5194    
     24870   397.17778     -925.4022       1446.82        4338.3991    
     24880   394.80963     -925.34591      2973.4338      4332.0436    
     24890   396.09762     -925.3893       4227.0698      4327.1418    
     24900   405.06836     -925.64987      5002.5682      4324.2505    
     24910   416.39927     -925.98908      5272.4097      4323.7053    
     24920   420.65104     -926.15366      4886.3595      4325.6021    
     24930   413.46652     -926.02157      3789.8909      4329.7407    
     24940   405.48007     -925.88393      2236.3176      4335.6046    
     24950   371.5584      -925.02325      674.92942      4342.4794    
     24960   384.56494     -925.45609     -1069.3167      4349.6153    
     24970   401.4193      -925.99202     -2663.7369      4356.2035    
     24980   379.77433     -925.45831     -3790.6963      4361.504     
     24990   375.74661     -925.4099      -4516.8858      4364.9847    
     25000   401.02514     -926.1811      -4927.064       4366.3075    
     25010   379.8974      -925.67086     -4801.9875      4365.3062    
     25020   362.77921     -925.26927     -4227.6709      4362.0569    
     25030   369.79763     -925.5297      -3126.4105      4356.8614    
     25040   355.80408     -925.1866      -1418.1548      4350.2717    
     25050   385.97842     -926.04884      337.64724      4343.0872    
     25060   413.79007     -926.83489      1964.8638      4336.1361    
     25070   375.23573     -925.77145      3549.5608      4330.1842    
     25080   384.56334     -926.03251      4562.8168      4325.9315    
     25090   405.19923     -926.60563      5011.2404      4323.831     
     25100   385.92341     -926.07518      5022.0051      4324.0747    
     25110   393.13861     -926.28371      4265.0027      4326.6325    
     25120   403.78048     -926.58744      3004.1621      4331.1485    
     25130   371.95445     -925.70478      1679.0166      4337.0429    
     25140   383.26729     -926.00768      51.573401      4343.6751    
     25150   367.80167     -925.54297     -1517.6363      4350.2956    
     25160   353.86873     -925.09754     -2917.8289      4356.1649    
     25170   381.18513     -925.76864     -4013.9282      4360.6269    
     25180   376.88748     -925.53663     -4412.3569      4363.1863    
     25190   366.67328     -925.12614     -4254.6799      4363.6595    
     25200   415.62793     -926.33705     -3908.3536      4362.1203    
     25210   400.52797     -925.75385     -3138.6136      4358.7654    
     25220   370.81358     -924.77548     -2073.2775      4353.9717    
     25230   415.14953     -925.84243     -923.39584      4348.2493    
     25240   414.30502     -925.64486      576.6484       4342.1658    
     25250   374.67932     -924.38863      2181.058       4336.4206    
     25260   419.28669     -925.4781       3387.7055      4331.738     
     25270   455.472       -926.33912      4278.3081      4328.6749    
     25280   433.20446     -925.61901      4760.3973      4327.628     
     25290   435.23443     -925.61614      4373.5284      4328.7834    
     25300   422.69223     -925.23667      3365.5586      4331.9581    
     25310   387.36288     -924.2385       2041.4582      4336.6831    
     25320   399.31111     -924.552        436.26554      4342.3288    
     25330   406.42788     -924.72449     -873.45504      4348.1656    
     25340   393.49491     -924.33903     -1960.1447      4353.5685    
     25350   395.09027     -924.35502     -2925.7073      4358.0202    
     25360   399.542       -924.44828     -3539.4482      4361.0775    
     25370   411.03767     -924.74093     -3802.4215      4362.4547    
     25380   423.76939     -925.07836     -3692.1022      4362.038     
     25390   419.53368     -924.96006     -3091.6908      4359.8985    
     25400   411.71041     -924.75391     -2039.6333      4356.3341    
     25410   437.8722      -925.50068     -923.76209      4351.8402    
     25420   467.76037     -926.37654      67.719983      4346.9451    
     25430   429.8784      -925.40157      1114.9437      4342.1306    
     25440   403.98067     -924.77341      2034.8337      4337.8781    
     25450   417.32776     -925.24512      2687.7536      4334.6078    
     25460   410.14431     -925.16165      3036.619       4332.6145    
     25470   397.18398     -924.92455      3109.8489      4332.052     
     25480   418.27992     -925.64744      2890.9188      4332.9447    
     25490   396.51898     -925.19094      2426.0259      4335.1845    
     25500   376.34537     -924.76927      1505.045       4338.5377    
     25510   389.74632     -925.27085      182.61481      4342.5697    
     25520   363.40483     -924.65177     -932.08281      4346.6828    
     25530   342.98836     -924.16502     -1647.0171      4350.358     
     25540   387.70265     -925.46678     -2156.0143      4353.2484    
     25550   410.72189     -926.16054     -2285.7559      4355.1256    
     25560   412.71552     -926.27442     -2215.8594      4355.9238    
     25570   434.7683      -926.95754     -2098.7113      4355.6755    
     25580   424.21621     -926.7515      -1760.1751      4354.4507    
     25590   392.87851     -925.96886     -1371.6303      4352.4082    
     25600   403.87659     -926.35731     -1127.4524      4349.7276    
     25610   383.73751     -925.87232     -645.57434      4346.5452    
     25620   350.23776     -924.99222      179.4575       4343.0976    
     25630   365.46136     -925.43923      803.49864      4339.7485    
     25640   378.92409     -925.81697      1416.8956      4336.8017    
     25650   364.60805     -925.40837      2061.4951      4334.5441    
     25660   371.34905     -925.57327      2365.788       4333.2562    
     25670   382.61038     -925.85571      2446.3764      4333.0805    
     25680   377.27906     -925.67441      2513.8154      4334.0609    
     25690   403.81674     -926.38052      2114.9565      4336.202     
     25700   411.54045     -926.57093      1338.4407      4339.3206    
     25710   372.47128     -925.46732      425.88635      4343.0597    
     25720   368.81144     -925.34059     -620.33389      4346.9872    
     25730   398.83634     -926.13934     -1555.5829      4350.6184    
     25740   379.59401     -925.56557     -2067.1468      4353.5265    
     25750   382.72457     -925.61206     -2437.6075      4355.4558    
     25760   416.77369     -926.51615     -2619.2707      4356.2348    
     25770   384.34557     -925.57766     -2258.0896      4355.7989    
     25780   395.72577     -925.85901     -1817.0837      4354.3025    
     25790   443.04202     -927.14086     -1525.266       4351.9495    
     25800   382.27978     -925.43211     -939.87934      4348.9049    
     25810   349.98707     -924.51196     -338.92771      4345.4343    
     25820   399.29089     -925.84017      204.49196      4341.8188    
     25830   373.64279     -925.0715       1215.5184      4338.3423    
     25840   344.79522     -924.20443      2128.56        4335.4526    
     25850   409.06129     -925.90296      2470.4419      4333.553     
     25860   411.77047     -925.87809      2820.0401      4332.8283    
     25870   388.64782     -925.14696      2991.4217      4333.4295    
     25880   432.59844     -926.28176      2476.8832      4335.4105    
     25890   418.08652     -925.79838      1664.2079      4338.5479    
     25900   385.92807     -924.83852      685.7174       4342.463     
     25910   416.10921     -925.60762     -430.40507      4346.6939    
     25920   413.54477     -925.46405     -1282.0897      4350.7326    
     25930   391.807       -924.7943      -2000.2263      4354.1686    
     25940   408.73713     -925.19851     -2717.6709      4356.6538    
     25950   405.21087     -925.03378     -2911.0044      4357.8724    
     25960   403.27815     -924.91749     -2601.7433      4357.733     
     25970   450.37719     -926.16846     -2266.0015      4356.3637    
     25980   432.03613     -925.61931     -1700.8015      4353.9394    
     25990   384.08902     -924.265       -1039.4319      4350.7264    
     26000   402.33345     -924.74755     -557.34604      4347.0274    
     26010   403.75466     -924.75594      164.77294      4343.0918    
     26020   376.08235     -923.95063      1165.1862      4339.2631    
     26030   395.39941     -924.43801      2035.2663      4335.992     
     26040   426.3429      -925.23499      2822.2878      4333.6887    
     26050   433.25349     -925.36711      3421.8359      4332.7155    
     26060   449.14067     -925.76481      3449.7068      4333.335     
     26070   460.67476     -926.06868      2744.8242      4335.5509    
     26080   419.52781     -924.94048      1729.542       4339.052     
     26090   389.08187     -924.12235      571.79697      4343.3668    
     26100   416.95171     -924.92774     -628.30811      4347.9542    
     26110   411.08606     -924.80547     -1620.5187      4352.2572    
     26120   394.31845     -924.39116     -2385.5453      4355.8054    
     26130   406.5167      -924.79344     -2936.2821      4358.2325    
     26140   407.07784     -924.88755     -3117.5831      4359.2835    
     26150   419.62747     -925.33664     -3037.0713      4358.8665    
     26160   434.42409     -925.88049     -2649.2871      4357.0249    
     26170   407.75524     -925.30009     -1886.5144      4353.95      
     26180   390.64229     -924.98721     -988.85761      4349.9972    
     26190   413.70874     -925.79711     -109.0835       4345.588     
     26200   403.69513     -925.69267      855.58187      4341.1462    
     26210   377.76457     -925.1319       1706.5315      4337.1158    
     26220   367.00022     -924.96676      2360.5994      4333.8926    
     26230   371.20477     -925.19351      2825.068       4331.7811    
     26240   392.14711     -925.86987      3111.6709      4330.9982    
     26250   410.06725     -926.46192      3029.0989      4331.6664    
     26260   393.93991     -926.10544      2626.8856      4333.7522    
     26270   397.51531     -926.29211      1743.1245      4337.0598    
     26280   384.09933     -925.99702      688.06534      4341.1906    
     26290   370.24828     -925.67289     -423.10143      4345.6521    
     26300   374.00094     -925.81841     -1513.8081      4349.9235    
     26310   375.16572     -925.8764      -2385.8649      4353.4943    
     26320   363.79924     -925.57006     -2838.4321      4355.9577    
     26330   384.95422     -926.15476     -2867.0254      4357.0959    
     26340   406.59581     -926.74637     -2602.9005      4356.8896    
     26350   405.07081     -926.69774     -2324.5234      4355.4522    
     26360   384.42588     -926.12054     -1981.4378      4352.9195    
     26370   367.36718     -925.63546     -1359.4863      4349.4656    
     26380   367.28006     -925.60508     -501.52426      4345.3847    
     26390   359.76123     -925.34611      503.52884      4341.0803    
     26400   356.63857     -925.18422      1499.1629      4337.0208    
     26410   376.6217      -925.63579      2278.9718      4333.6644    
     26420   389.66635     -925.86872      2955.5318      4331.3825    
     26430   397.89657     -925.95438      3357.5605      4330.4836    
     26440   399.75228     -925.8565       3295.0591      4331.1478    
     26450   394.15853     -925.55163      2881.5178      4333.3543    
     26460   411.09901     -925.8716       2131.3876      4336.912     
     26470   434.97018     -926.38529      1177.1731      4341.4795    
     26480   433.20759     -926.20416      45.848893      4346.6125    
     26490   416.01734     -925.62022     -1249.3958      4351.7777    
     26500   388.5649      -924.76659     -2504.8466      4356.3693    
     26510   385.96432     -924.60893     -3571.3409      4359.7912    
     26520   397.63227     -924.84863     -4115.0435      4361.5453    
     26530   385.03681     -924.42228     -3952.5664      4361.3752    
     26540   376.16671     -924.10585     -3244.2996      4359.3505    
     26550   416.81503     -925.16583     -2355.4046      4355.7916    
     26560   432.49446     -925.54075     -1239.3225      4351.1276    
     26570   413.22925     -924.96509      21.371243      4345.8869    
     26580   419.50871     -925.11257      1140.8808      4340.6546    
     26590   416.35002     -925.00793      2158.2278      4335.9611    
     26600   391.43671     -924.30445      3062.9195      4332.2828    
     26610   419.21565     -925.06859      3639.786       4330.0334    
     26620   450.2582      -925.93833      3888.0559      4329.4849    
     26630   430.79814     -925.4314       3778.3392      4330.7551    
     26640   415.55124     -925.05791      3067.7879      4333.7867    
     26650   415.19211     -925.10158      1874.4705      4338.2594    
     26660   417.60459     -925.22203      466.98819      4343.6289    
     26670   419.03324     -925.31478     -935.53877      4349.2432    
     26680   407.07994     -925.0343      -2078.1784      4354.4507    
     26690   396.98356     -924.79933     -3092.6074      4358.6962    
     26700   407.84824     -925.14377     -3908.3444      4361.4944    
     26710   399.35619     -924.95201     -4246.8002      4362.4623    
     26720   381.46141     -924.49705     -4011.8678      4361.4369    
     26730   384.9601      -924.62981     -3413.0945      4358.5147    
     26740   390.91806     -924.82236     -2272.9275      4353.9918    
     26750   398.86453     -925.06175     -682.26599      4348.4077    
     26760   413.17532     -925.47219      848.71211      4342.494     
     26770   424.48924     -925.80188      2131.6578      4336.9696    
     26780   424.36664     -925.82445      3149.0803      4332.4372    
     26790   418.88067     -925.71116      3859.8783      4329.3723    
     26800   416.45172     -925.69702      4109.1868      4328.1015    
     26810   406.19016     -925.47666      3899.1391      4328.7457    
     26820   399.57152     -925.36332      3329.8718      4331.2166    
     26830   407.63337     -925.66039      2483.3038      4335.2605    
     26840   416.45373     -925.9841       1235.8851      4340.4825    
     26850   399.62082     -925.59705     -337.36451      4346.3059    
     26860   376.75669     -925.03223     -1938.5365      4352.0017    
     26870   368.9584      -924.87009     -3179.0466      4356.8225    
     26880   362.8367      -924.73709     -3867.4657      4360.1798    
     26890   386.16695     -925.41229     -4296.2483      4361.72      
     26900   385.87446     -925.42918     -4210.5346      4361.2427    
     26910   355.40108     -924.5999      -3450.6512      4358.7891    
     26920   389.60803     -925.55407     -2349.292       4354.7002    
     26930   430.13385     -926.67435     -943.79561      4349.5002    
     26940   416.94228     -926.30774      559.99361      4343.8471    
     26950   409.64959     -926.11318      1807.2227      4338.4361    
     26960   416.60888     -926.32273      2816.5397      4333.8574    
     26970   406.21327     -926.06351      3554.8667      4330.5856    
     26980   403.24761     -926.02865      3808.5028      4328.9611    
     26990   397.87711     -925.94856      3509.8206      4329.1029    
     27000   371.74125     -925.30636      2834.5813      4330.8891    
     27010   363.01277     -925.1529       1974.3268      4334.0187    
     27020   351.19523     -924.90683      1141.7109      4338.1068    
     27030   367.32986     -925.42653      173.46247      4342.7614    
     27040   392.89635     -926.20439     -925.29355      4347.5295    
     27050   377.89314     -925.85361     -1870.4515      4351.9035    
     27060   366.45733     -925.59289     -2649.6717      4355.4309    
     27070   389.14473     -926.27473     -3312.2077      4357.7286    
     27080   377.50218     -925.99996     -3486.0652      4358.4889    
     27090   365.6861      -925.71318     -3199.0474      4357.6151    
     27100   383.32492     -926.23543     -2532.9873      4355.23      
     27110   391.83656     -926.49589     -1519.3519      4351.6425    
     27120   398.98045     -926.71367     -431.03309      4347.3172    
     27130   402.09702     -926.81772      564.38273      4342.7605    
     27140   382.93071     -926.29947      1449.5236      4338.442     
     27150   370.70343     -925.9646       2114.1517      4334.7745    
     27160   375.13353     -926.07924      2598.2751      4332.0758    
     27170   375.68523     -926.07294      2934.2493      4330.5817    
     27180   368.31725     -925.83468      2939.1972      4330.4503    
     27190   354.05069     -925.3887       2626.9764      4331.6976    
     27200   360.78103     -925.50381      1992.8479      4334.1901    
     27210   378.00919     -925.88327      1177.5931      4337.6494    
     27220   377.98422     -925.76133      422.52863      4341.7131    
     27230   364.70174     -925.25592     -280.004        4346.0324    
     27240   398.4068      -926.0372      -1149.3968      4350.2671    
     27250   429.066       -926.71744     -1954.7789      4354.0136    
     27260   409.46308     -926.01709     -2477.9822      4356.891     
     27270   395.58812     -925.49857     -2920.862       4358.6285    
     27280   408.68636     -925.73985     -3283.0797      4358.9975    
     27290   389.91229     -925.10679     -3072.9821      4357.8308    
     27300   379.17583     -924.70824     -2366.4552      4355.2047    
     27310   406.20455     -925.35649     -1442.7704      4351.4288    
     27320   422.59634     -925.71104     -365.21626      4346.9281    
     27330   404.37865     -925.11693      799.19738      4342.2047    
     27340   421.86848     -925.52682      1788.6629      4337.795     
     27350   423.29754     -925.501        2650.1901      4334.1762    
     27360   400.28138     -924.81319      3012.0638      4331.7447    
     27370   388.8087      -924.45385      3040.8568      4330.695     
     27380   389.16229     -924.42291      3048.7705      4331.0731    
     27390   401.0847      -924.71094      2874.8039      4332.9009    
     27400   429.63092     -925.46527      2202.2847      4336.1085    
     27410   411.82683     -924.94286      1268.6897      4340.4182    
     27420   398.66309     -924.55634      147.72163      4345.4128    
     27430   425.45384     -925.27969     -1096.567       4350.5753    
     27440   432.61995     -925.46596     -2122.2231      4355.332     
     27450   423.62241     -925.21931     -2939.4554      4359.1815    
     27460   428.87631     -925.38766     -3552.541       4361.7096    
     27470   411.8591      -924.95358     -3717.3046      4362.6067    
     27480   418.73916     -925.19958     -3605.6465      4361.7496    
     27490   425.22928     -925.45497     -3168.3451      4359.1599    
     27500   393.52369     -924.66382     -2345.1316      4355.0166    
     27510   382.86552     -924.45637     -1267.1495      4349.6788    
     27520   400.37088     -925.03176      74.931474      4343.6383    
     27530   391.59749     -924.87632      1737.7192      4337.5274    
     27540   409.78837     -925.47635      3125.9457      4332.1062    
     27550   422.83885     -925.9575       4008.6843      4328.0364    
     27560   396.187       -925.36148      4472.528       4325.766     
     27570   387.08106     -925.26773      4399.1219      4325.5459    
     27580   394.37684     -925.64932      3851.7466      4327.3931    
     27590   374.77562     -925.28907      3057.4169      4331.1139    
     27600   386.48068     -925.79563      1838.737       4336.3732    
     27610   395.66658     -926.23145      418.09666      4342.649     
     27620   390.31458     -926.24979     -1079.294       4349.2975    
     27630   402.81574     -926.75308     -2593.2099      4355.6128    
     27640   371.16413     -926.00744     -3796.6534      4360.8726    
     27650   356.82761     -925.70704     -4791.6189      4364.4563    
     27660   378.43144     -926.38333     -5332.0235      4365.845     
     27670   357.30372     -925.85447     -4978.6903      4364.7367    
     27680   345.12052     -925.55048     -4011.5018      4361.2237    
     27690   381.95086     -926.58707     -2793.4286      4355.698     
     27700   385.47759     -926.68304     -1239.7649      4348.7053    
     27710   362.79023     -926.03519      649.17775      4340.9595    
     27720   386.07009     -926.64654      2500.7957      4333.3288    
     27730   389.85767     -926.70349      4095.9094      4326.689     
     27740   368.9136      -926.0712       5223.5219      4321.8094    
     27750   375.8945      -926.21428      5700.1168      4319.2552    
     27760   379.26335     -926.25813      5592.5884      4319.3138    
     27770   361.39062     -925.71501      4934.9902      4322.0072    
     27780   351.32048     -925.38553      3687.9665      4327.1001    
     27790   342.80013     -925.08192      2028.1092      4334.0839    
     27800   373.75052     -925.85164      181.77248      4342.2371    
     27810   403.54007     -926.56673     -1545.2389      4350.7265    
     27820   406.28532     -926.52991     -3074.3117      4358.7332    
     27830   400.74736     -926.27239     -4494.3682      4365.4949    
     27840   401.66122     -926.20548     -5660.5777      4370.2884    
     27850   398.33316     -926.03455     -6308.9151      4372.498     
     27860   395.10657     -925.88381     -6279.7928      4371.7404    
     27870   387.18102     -925.6164      -5458.7115      4367.9588    
     27880   362.50426     -924.88635     -3977.8401      4361.4762    
     27890   371.369       -925.07646     -2122.3363      4352.9384    
     27900   388.96554     -925.485        164.57497      4343.2047    
     27910   401.12936     -925.72467      2475.0375      4333.3302    
     27920   389.8778      -925.30516      4636.1698      4324.4098    
     27930   388.89462     -925.17014      6333.708       4317.4703    
     27940   405.61614     -925.53195      7291.2259      4313.3382    
     27950   396.22559     -925.1859       7542.9258      4312.5246    
     27960   394.75021     -925.08073      7039.6878      4315.2235    
     27970   422.47455     -925.80112      5608.5847      4321.2796    
     27980   415.58985     -925.57132      3522.2392      4330.124     
     27990   387.32911     -924.7505       1116.6987      4340.8598    
     28000   406.21534     -925.22436     -1462.5617      4352.3955    
     28010   431.74414     -925.8677      -3954.6438      4363.5191    
     28020   427.02275     -925.67532     -6013.9496      4373.0221    
     28030   427.34052     -925.64243     -7618.9069      4379.8515    
     28040   418.37049     -925.37916     -8500.0852      4383.1667    
     28050   397.33145     -924.80986     -8466.2693      4382.4656    
     28060   382.4774      -924.43176     -7579.2261      4377.6822    
     28070   376.14431     -924.29202     -5819.9983      4369.1848    
     28080   390.27063     -924.70763     -3245.6624      4357.7771    
     28090   386.82017     -924.60689     -75.094712      4344.6647    
     28100   404.7338      -925.06766      3124.3994      4331.3274    
     28110   427.69008     -925.64805      6113.866       4319.2768    
     28120   405.92828     -924.98503      8556.1272      4309.9203    
     28130   434.08031     -925.7307       9717.8296      4304.3916    
     28140   436.49696     -925.80428      9848.497       4303.2895    
     28150   379.93966     -924.2821       9183.1717      4306.751     
     28160   399.59061     -924.89914      7288.5379      4314.5272    
     28170   441.75868     -926.15664      4529.4479      4325.8361    
     28180   413.66793     -925.47538      1525.5428      4339.4817    
     28190   417.57406     -925.68844     -1912.8497      4354.0693    
     28200   413.75809     -925.69909     -5234.0981      4367.9876    
     28210   362.11337     -924.3823      -7877.7251      4379.6316    
     28220   383.9247      -925.11582     -9915.9263      4387.6554    
     28230   408.14484     -925.96679     -10827.179      4391.0236    
     28240   361.26031     -924.87177     -10281.666      4389.2444    
     28250   376.27039     -925.50191     -8871.3597      4382.5029    
     28260   397.63549     -926.31999     -6556.5232      4371.4616    
     28270   343.60303     -925.00392     -3233.0609      4357.2403    
     28280   361.78012     -925.62704      347.3221       4341.4046    
     28290   391.15038     -926.51194      4033.394       4325.6644    
     28300   346.25785     -925.2793       7690.6533      4311.7588    
     28310   389.9986      -926.48066      10276.059      4301.3443    
     28320   436.62292     -927.78138      11623.941      4295.6122    
     28330   382.92895     -926.33723      11821.729      4295.1983    
     28340   373.51595     -926.15154      10451.719      4300.2065    
     28350   401.31247     -927.01279      7771.5404      4310.0679    
     28360   356.49799     -925.84231      4543.1145      4323.6312    
     28370   347.89192     -925.63396      841.19364      4339.4322    
     28380   382.82216     -926.57493     -3009.6334      4355.7559    
     28390   376.79531     -926.32976     -6413.1471      4370.7822    
     28400   349.94898     -925.47961     -9063.6481      4382.855     
     28410   355.55208     -925.52001     -10869.467      4390.652     
     28420   363.25848     -925.62148     -11527.125      4393.2731    
     28430   353.15595     -925.24382     -10835.321      4390.3872    
     28440   359.51368     -925.33118     -8962.3287      4382.3226    
     28450   378.5821      -925.75454     -6046.825       4370.0026    
     28460   396.08385     -926.10252     -2395.6025      4354.8537    
     28470   421.18409     -926.62991      1436.2929      4338.6262    
     28480   409.17097     -926.11055      5263.1371      4323.1452    
     28490   403.08376     -925.76234      8462.2785      4310.1712    
     28500   424.59882     -926.20328      10505.919      4301.1398    
     28510   408.19239     -925.63839      11437.054      4296.9634    
     28520   392.15631     -925.14024      11122.916      4298.0372    
     28530   410.18952     -925.62918      9488.9692      4304.2077    
     28540   411.7648      -925.68494      6792.6277      4314.7454    
     28550   376.78825     -924.72393      3396.0789      4328.4357    
     28560   379.5612      -924.78196     -378.12444      4343.7147    
     28570   364.38055     -924.29782     -3776.9757      4358.8344    
     28580   350.84774     -923.82488     -6517.9292      4372.1744    
     28590   411.82839     -925.40264     -8694.1257      4382.3957    
     28600   422.60715     -925.59729     -9857.1983      4388.4593    
     28610   396.97944     -924.82366     -9859.7195      4389.8101    
     28620   433.13184     -925.80433     -9036.7551      4386.45      
     28630   451.97839     -926.34087     -7446.5265      4378.8089    
     28640   411.63654     -925.26182     -5010.079       4367.7048    
     28650   409.55473     -925.24552     -2166.789       4354.3295    
     28660   401.94119     -925.05362      1076.6882      4340.075     
     28670   393.08571     -924.79808      4372.91        4326.4732    
     28680   420.21291     -925.52644      7040.6904      4315.0254    
     28690   409.84258     -925.22016      8990.8185      4306.936     
     28700   396.73711     -924.85986      9873.8546      4303.0423    
     28710   414.16622     -925.37881      9556.4373      4303.6982    
     28720   390.95708     -924.79585      8382.0908      4308.7419    
     28730   381.89515     -924.61381      6296.393       4317.6105    
     28740   423.38686     -925.83126      3441.6676      4329.3371    
     28750   405.60856     -925.39066      378.21071      4342.6127    
     28760   382.11899     -924.76924     -2690.1722      4355.9975    
     28770   399.18879     -925.25305     -5472.4984      4368.0402    
     28780   391.11439     -925.03014     -7477.8628      4377.4319    
     28790   396.67311     -925.19758     -8727.9442      4383.2105    
     28800   399.6158      -925.31618     -8993.6593      4384.806     
     28810   407.4786      -925.60368     -8319.039       4382.1227    
     28820   414.33168     -925.89589     -6804.7627      4375.5305    
     28830   411.79052     -925.95233     -4657.8926      4365.8027    
     28840   416.65981     -926.23304     -2174.703       4354.0042    
     28850   397.94754     -925.86953      508.55459      4341.3466    
     28860   360.10604     -924.95904      3255.5973      4329.1059    
     28870   377.52087     -925.56813      5688.2745      4318.5417    
     28880   382.49033     -925.83793      7584.6276      4310.7424    
     28890   349.67278     -925.05422      8749.1877      4306.5275    
     28900   382.03891     -926.08612      8740.9154      4306.3611    
     28910   411.20822     -927.0594       7711.3461      4310.1989    
     28920   343.33475     -925.33198      6112.8181      4317.5554    
     28930   352.44112     -925.70916      3621.7049      4327.6511    
     28940   394.12195     -926.96292      746.94017      4339.3363    
     28950   364.5651      -926.20434     -1879.5568      4351.2811    
     28960   359.88766     -926.10052     -4292.5443      4362.237     
     28970   384.346       -926.78259     -6388.0035      4371.0615    
     28980   357.71506     -926.03327     -7640.0777      4376.7911    
     28990   368.00562     -926.30816     -8100.8589      4378.8477    
     29000   395.43915     -927.06272     -7740.3437      4377.0529    
     29010   373.27495     -926.44546     -6447.8351      4371.6387    
     29020   362.04618     -926.12584     -4538.6148      4363.2671    
     29030   362.96249     -926.11702     -2200.2593      4352.893     
     29040   354.0626      -925.79581      376.66653      4341.6573    
     29050   389.0006      -926.65034      2733.4625      4330.7676    
     29060   375.34823     -926.11806      4962.0278      4321.3245    
     29070   344.76277     -925.10338      6755.391       4314.3179    
     29080   382.30546     -925.96259      7721.4004      4310.5135    
     29090   401.54587     -926.29969      7902.3552      4310.3053    
     29100   378.19869     -925.47803      7291.2765      4313.7287    
     29110   399.42388     -925.91961      5738.105       4320.4558    
     29120   415.92126     -926.2404       3562.7318      4329.7535    
     29130   382.65799     -925.2018       1013.7671      4340.6012    
     29140   383.525       -925.12028     -1730.5842      4351.7991    
     29150   409.06162     -925.72077     -4180.2434      4362.0679    
     29160   402.61941     -925.44485     -5930.1042      4370.2668    
     29170   391.33411     -925.05698     -7012.0039      4375.5755    
     29180   400.09264     -925.24725     -7454.3695      4377.5055    
     29190   398.1251      -925.16101     -7083.9351      4375.8972    
     29200   398.10208     -925.14665     -5922.2804      4370.9797    
     29210   411.06304     -925.50087     -4127.6143      4363.3594    
     29220   414.07621     -925.58        -2014.486       4353.927     
     29230   404.83482     -925.31443      285.83513      4343.7145    
     29240   404.58407     -925.28933      2640.6262      4333.8141    
     29250   400.64773     -925.15315      4758.8156      4325.3077    
     29260   400.0791      -925.10995      6151.748       4319.128     
     29270   409.57322     -925.35571      6725.9035      4315.8704    
     29280   403.71026     -925.19139      6666.7483      4315.7565    
     29290   390.95075     -924.84796      6068.9378      4318.7186    
     29300   412.94632     -925.47828      4751.0461      4324.4328    
     29310   401.23319     -925.17326      3044.7554      4332.2788    
     29320   405.99517     -925.32151      864.34481      4341.4361    
     29330   428.22902     -925.94964     -1507.8805      4350.8837    
     29340   379.2693      -924.59566     -3438.9786      4359.5285    
     29350   358.9581      -924.02339     -4955.268       4366.4582    
     29360   424.57027     -925.82971     -6059.3271      4370.967     
     29370   428.64414     -925.94132     -6257.2595      4372.5796    
     29380   396.42817     -925.06888     -5649.7776      4371.2358    
     29390   426.47687     -925.94286     -4753.6537      4367.2449    
     29400   432.4501      -926.1673      -3457.6063      4361.085     
     29410   404.52405     -925.46482     -1792.0197      4353.4088    
     29420   404.89835     -925.5524      -82.987847      4345.0173    
     29430   388.70073     -925.17777      1600.1702      4336.7253    
     29440   359.93916     -924.44056      3236.6132      4329.3166    
     29450   375.38436     -924.91835      4552.0406      4323.5229    
     29460   387.38717     -925.29808      5430.0005      4319.9201    
     29470   379.30011     -925.12398      5775.5156      4318.8737    
     29480   378.91839     -925.16763      5443.5678      4320.4996    
     29490   402.0903      -925.8703       4545.0744      4324.6162    
     29500   412.07709     -926.21694      3322.9497      4330.7914    
     29510   400.56642     -925.97331      1727.2136      4338.4365    
     29520   414.73757     -926.44693     -300.88492      4346.7898    
     29530   421.64764     -926.73        -2290.5225      4354.9118    
     29540   377.90303     -925.61119     -3826.8945      4361.8827    
     29550   366.29173     -925.37738     -5132.4103      4366.971     
     29560   385.19592     -925.9945      -6052.8582      4369.5804    
     29570   364.18418     -925.50672     -6035.2457      4369.3268    
     29580   364.10121     -925.59738     -5250.9882      4366.2477    
     29590   387.87784     -926.34977     -3968.5993      4360.7472    
     29600   377.53847     -926.14783     -2253.0758      4353.4732    
     29610   379.32788     -926.2702      -459.0429       4345.2515    
     29620   371.28083     -926.10329      1378.5897      4336.9425    
     29630   353.93801     -925.65454      3125.134       4329.4032    
     29640   367.1074      -926.03482      4399.4204      4323.4143    
     29650   354.94048     -925.69494      5307.9019      4319.5454    
     29660   352.19405     -925.60198      5797.5779      4318.1805    
     29670   392.70347     -926.69729      5645.1085      4319.5034    
     29680   397.13394     -926.78091      4879.9624      4323.4148    
     29690   384.57758     -926.3878       3553.7205      4329.5388    
     29700   402.35236     -926.82027      1642.1677      4337.237     
     29710   389.97088     -926.39149     -292.70241      4345.6318    
     29720   376.29116     -925.9044      -2179.139       4353.8085    
     29730   392.29323     -926.21239     -3905.2689      4360.8813    
     29740   387.01664     -925.90408     -5154.9569      4366.0525    
     29750   367.66023     -925.19724     -5786.6698      4368.75      
     29760   373.32572     -925.17605     -5788.4221      4368.6976    
     29770   381.51362     -925.21449     -5084.1545      4365.9322    
     29780   401.85436     -925.58816     -3913.1415      4360.8141    
     29790   392.30494     -925.14105     -2293.2799      4353.9357    
     29800   374.14357     -924.47395     -378.52525      4346.0849    
     29810   409.39018     -925.29567      1473.7502      4338.164     
     29820   432.34343     -925.78501      3136.0179      4331.036     
     29830   385.91402     -924.37811      4608.6921      4325.4656    
     29840   401.42089     -924.71679      5397.318       4322.0881    
     29850   429.38128     -925.41643      5628.2139      4321.2442    
     29860   417.10849     -925.02675      5520.3039      4323.0221    
     29870   447.08109     -925.83974      4680.1121      4327.3281    
     29880   469.8538      -926.48365      3129.0231      4333.7543    
     29890   436.42315     -925.59799      1230.4219      4341.579     
     29900   407.72956     -924.85121     -902.47451      4349.9074    
     29910   406.40846     -924.85896     -3007.9307      4357.7396    
     29920   382.5515      -924.23086     -4600.1248      4364.1023    
     29930   374.287       -924.02709     -5686.4486      4368.2445    
     29940   388.26437     -924.43683     -6103.512       4369.6743    
     29950   397.93163     -924.73199     -5598.1849      4368.2304    
     29960   387.73908     -924.47769     -4354.0009      4364.1799    
     29970   411.83876     -925.17574     -2892.1246      4358.1252    
     29980   430.52926     -925.72664     -1221.4362      4350.7903    
     29990   409.80662     -925.18916      665.26262      4342.9839    
     30000   404.98793     -925.09053      2469.7072      4335.588     
     30010   446.3188      -926.28511      3883.8586      4329.425     
     30020   421.02964     -925.65108      4923.2238      4325.1398    
     30030   414.79977     -925.56886      5204.0489      4323.1696    
     30040   421.5789      -925.8732       4953.6902      4323.6284    
     30050   391.8837      -925.18019      4361.7975      4326.385     
     30060   384.44891     -925.10434      3136.342       4331.1324    
     30070   396.85347     -925.57829      1499.2964      4337.2944    
     30080   376.65664     -925.13372     -45.567677      4344.1213    
     30090   399.76883     -925.88041     -1708.3286      4350.8697    
     30100   405.68684     -926.15107     -3151.3825      4356.7712    
     30110   343.68195     -924.51871     -4096.8388      4361.1588    
     30120   351.89713     -924.81171     -4759.2452      4363.5806    
     30130   390.11043     -925.92963     -4836.609       4363.7506    
     30140   368.49836     -925.3784      -4053.6109      4361.667     
     30150   394.93384     -926.15595     -3005.7584      4357.6967    
     30160   414.99241     -926.75562     -1727.3845      4352.3593    
     30170   381.14301     -925.85475     -159.89653      4346.2798    
     30180   399.95854     -926.40807      1130.1282      4340.1806    
     30190   429.83361     -927.27351      2170.8145      4334.6682    
     30200   370.3215      -925.6602       3307.1689      4330.24      
     30210   362.7479      -925.48259      3866.2971      4327.3795    
     30220   394.59875     -926.39503      3847.0582      4326.3317    
     30230   373.02817     -925.82299      3664.6482      4327.0886    
     30240   358.31721     -925.43491      3175.0824      4329.5451    
     30250   384.4878      -926.16993      2157.9272      4333.4508    
     30260   367.70498     -925.69408      1068.8324      4338.3451    
     30270   347.48179     -925.09876     -75.485798      4343.7115    
     30280   373.62029     -925.75203     -1283.6522      4349.0083    
     30290   393.12102     -926.17444     -2215.7263      4353.6817    
     30300   403.59318     -926.31217     -2887.66        4357.292     
     30310   408.87917     -926.28273     -3393.4728      4359.5215    
     30320   396.53074     -925.7547      -3538.0549      4360.1473    
     30330   385.96337     -925.27568     -3333.2221      4359.1109    
     30340   399.52235     -925.46318     -2846.2318      4356.5187    
     30350   389.17071     -924.98744     -1888.3657      4352.6252    
     30360   392.33594     -924.89782     -714.14941      4347.8848    
     30370   427.56007     -925.70052      499.89364      4342.8513    
     30380   421.22972     -925.36534      1860.8081      4338.1073    
     30390   420.54785     -925.21604      2858.4493      4334.2651    
     30400   448.39557     -925.88361      3179.3032      4331.7693    
     30410   422.07667     -925.07828      3190.8491      4330.7744    
     30420   370.94037     -923.6064       3079.5568      4331.2822    
     30430   407.91069     -924.58384      2567.8791      4333.2171    
     30440   424.28088     -924.98795      1954.3351      4336.348     
     30450   386.02199     -923.88381      1277.5833      4340.3852    
     30460   427.98539     -925.01125      104.24221      4344.9862    
     30470   444.2546      -925.43054     -1030.5013      4349.623     
     30480   395.50495     -924.06046     -1786.0861      4353.7739    
     30490   409.95323     -924.45198     -2538.8653      4357.063     
     30500   444.74238     -925.41561     -3064.4397      4359.1473    
     30510   443.52794     -925.40496     -3162.677       4359.792     
     30520   434.92978     -925.2201      -2987.3691      4358.9502    
     30530   420.71148     -924.90291     -2563.5785      4356.7118    
     30540   411.14444     -924.72789     -1921.0232      4353.2869    
     30550   423.98352     -925.18981     -1036.536       4348.99      
     30560   399.27141     -924.61699      147.77286      4344.248     
     30570   385.71029     -924.34718      1361.8883      4339.6122    
     30580   416.95377     -925.32307      2274.3012      4335.637     
     30590   426.72867     -925.71809      2931.5739      4332.7487    
     30600   413.55582     -925.49112      3216.6109      4331.2413    
     30610   393.62381     -925.0803       3074.5653      4331.2379    
     30620   381.01238     -924.86211      2565.577       4332.6665    
     30630   395.19566     -925.3786       1932.7711      4335.2938    
     30640   392.39868     -925.41545      1329.0535      4338.8273    
     30650   387.44181     -925.3777       537.06797      4342.9724    
     30660   412.29294     -926.15996     -476.69111      4347.3534    
     30670   414.40785     -926.30942     -1430.9783      4351.5048    
     30680   396.52861     -925.89892     -2321.5679      4354.9739    
     30690   388.56445     -925.75407     -3088.0607      4357.3408    
     30700   373.09051     -925.38694     -3442.4128      4358.2568    
     30710   373.57906     -925.44666     -3315.0647      4357.5614    
     30720   390.20205     -925.94545     -2813.8725      4355.315     
     30730   361.9442      -925.18229     -1812.5975      4351.7734    
     30740   385.70994     -925.84949     -754.43614      4347.3957    
     30750   407.17131     -926.44117      376.10088      4342.6908    
     30760   389.89738     -925.95318      1520.6128      4338.1908    
     30770   399.38228     -926.2054       2410.4095      4334.4214    
     30780   410.02092     -926.49093      2988.8678      4331.7915    
     30790   377.35544     -925.57502      3304.6755      4330.5707    
     30800   380.50105     -925.65141      3033.0573      4330.8833    
     30810   388.58695     -925.85764      2460.7072      4332.6128    
     30820   364.8834      -925.17404      1730.6502      4335.493     
     30830   360.9773      -925.02772      822.49608      4339.1791    
     30840   382.82229     -925.57991     -142.2648       4343.2476    
     30850   379.04192     -925.40703     -833.55465      4347.2592    
     30860   403.66241     -926.02061     -1419.7576      4350.8777    
     30870   402.11503     -925.90692     -1912.509       4353.8286    
     30880   402.45756     -925.85579     -2426.8437      4355.8703    
     30890   413.23569     -926.10362     -2730.8507      4356.7708    
     30900   396.65322     -925.60255     -2679.6962      4356.3943    
     30910   397.32008     -925.58893     -2420.4902      4354.7613    
     30920   408.77764     -925.88031     -1905.8367      4351.9997    
     30930   383.19075     -925.14589     -884.07681      4348.3723    
     30940   381.00439     -925.05828      150.31074      4344.3417    
     30950   416.51254     -926.0124       984.53048      4340.3924    
     30960   413.79407     -925.91219      1663.0188      4336.9163    
     30970   374.21014     -924.79329      2336.4072      4334.2396    
     30980   397.73351     -925.42723      2577.2709      4332.6526    
     30990   390.54632     -925.20542      2585.4086      4332.2767    
     31000   370.33675     -924.6219       2341.1757      4333.1105    
     31010   388.69312     -925.10379      1924.2389      4335.0422    
     31020   399.37412     -925.36835      1454.6529      4337.8809    
     31030   401.61295     -925.40059      804.65464      4341.4017    
     31040   409.83247     -925.60263     -14.945199      4345.2992    
     31050   414.79731     -925.71922     -790.12026      4349.1964    
     31060   421.48456     -925.89241     -1460.1706      4352.7289    
     31070   426.17099     -926.02238     -2072.428       4355.5758    
     31080   417.38111     -925.79141     -2581.9738      4357.4476    
     31090   413.49866     -925.70778     -2966.9999      4358.1022    
     31100   404.3727      -925.48726     -3068.8767      4357.3627    
     31110   373.84497     -924.67069     -2632.6169      4355.1954    
     31120   375.89826     -924.74817     -1923.9144      4351.7975    
     31130   396.78352     -925.33737     -1035.6211      4347.5055    
     31140   384.04868     -924.98387      219.38294      4342.7522    
     31150   382.13904     -924.91977      1578.4229      4338.1207    
     31160   413.22092     -925.76383      2546.8804      4334.2289    
     31170   409.9467      -925.65607      3102.3833      4331.53      
     31180   386.447       -924.99304      3273.5907      4330.2807    
     31190   385.48386     -924.95372      3163.4005      4330.5638    
     31200   410.0781      -925.62072      2818.5065      4332.3279    
     31210   412.74251     -925.68027      2334.7097      4335.4197    
     31220   414.07238     -925.70966      1472.4763      4339.6025    
     31230   418.93116     -925.84261      328.34721      4344.479     
     31240   413.6991      -925.70095     -874.36576      4349.5203    
     31250   411.43898     -925.64916     -2016.7363      4354.1595    
     31260   396.33028     -925.24599     -2878.9843      4357.8639    
     31270   398.81313     -925.33685     -3555.5724      4360.2139    
     31280   411.54473     -925.72297     -3833.9362      4360.895     
     31290   402.55382     -925.52303     -3623.5649      4359.7764    
     31300   379.91305     -924.95642     -2998.3248      4356.9571    
     31310   371.36522     -924.78293     -2147.4486      4352.7279    
     31320   372.76152     -924.8799      -1027.4598      4347.5005    
     31330   381.54345     -925.17408      294.1035       4341.8055    
     31340   386.06858     -925.34445      1727.4598      4336.2647    
     31350   379.04881     -925.18605      3044.373       4331.5442    
     31360   413.18359     -926.17218      3846.9562      4328.2404    
     31370   425.02195     -926.55688      4251.2417      4326.7318    
     31380   386.52181     -925.5594       4255.7195      4327.2078    
     31390   399.48839     -925.99845      3541.8834      4329.6556    
     31400   423.09159     -926.74776      2525.462       4333.7656    
     31410   381.8376      -925.70095      1343.239       4339.0724    
     31420   377.54654     -925.66999     -196.49035      4345.0131    
     31430   401.53439     -926.41745     -1663.6774      4350.8813    
     31440   386.41303     -926.07456     -2719.1539      4355.9953    
     31450   377.21024     -925.88892     -3653.5282      4359.8345    
     31460   374.53615     -925.87857     -4398.891       4361.951     
     31470   346.41573     -925.14776     -4527.7974      4362.0056    
     31480   354.80557     -925.41519     -4122.0365      4359.9287    
     31490   365.34737     -925.72465     -3229.059       4355.9142    
     31500   352.17799     -925.35445     -1819.9138      4350.3931    
     31510   365.53566     -925.69446     -149.25494      4344.0272    
     31520   390.61909     -926.33196      1532.9765      4337.6       
     31530   389.54003     -926.22293      3034.0186      4331.8973    
     31540   410.96127     -926.73055      4014.0485      4327.6062    
     31550   417.22234     -926.81677      4570.2587      4325.1862    
     31560   393.26323     -926.0734       4807.6913      4324.9019    
     31570   406.06886     -926.3568       4280.6703      4326.8443    
     31580   423.02072     -926.75455      3215.8935      4330.7839    
     31590   382.11133     -925.54946      1925.3851      4336.2428    
     31600   350.14437     -924.58508      227.88661      4342.6116    
     31610   373.91094     -925.13866     -1603.2749      4349.1035    
     31620   372.00585     -924.94584     -2841.2419      4354.8818    
     31630   351.52259     -924.22274     -3496.2749      4359.3518    
     31640   403.16722     -925.48262     -3996.4891      4362.1752    
     31650   445.15962     -926.45912     -4141.7339      4363.1176    
     31660   404.13723     -925.16188     -3671.4438      4362.1197    
     31670   401.36858     -924.9618      -3088.6221      4359.3805    
     31680   434.94676     -925.78353     -2384.3831      4355.179     
     31690   390.22526     -924.44979     -1092.1073      4349.8768    
     31700   389.5706      -924.35384      271.77476      4344.0629    
     31710   443.54132     -925.77376      1582.3991      4338.38      
     31720   425.38041     -925.20638      2981.3983      4333.454     
     31730   408.08746     -924.68551      3884.5408      4329.914     
     31740   451.98364     -925.8837       4099.7349      4328.1726    
     31750   426.1961      -925.17271      4090.5775      4328.3532    
     31760   398.90858     -924.43746      3596.2453      4330.4423    
     31770   434.77837     -925.46616      2502.6663      4334.2076    
     31780   414.34632     -924.94025      1359.7456      4339.1689    
     31790   386.26127     -924.20013      73.945813      4344.7876    
     31800   411.01289     -924.92039     -1405.8215      4350.4552    
     31810   401.00216     -924.67109     -2513.4836      4355.4954    
     31820   386.75694     -924.29929     -3266.0199      4359.3757    
     31830   413.51084     -925.06705     -3881.0233      4361.7188    
     31840   398.31324     -924.6725      -3859.1092      4362.2515    
     31850   415.00904     -925.17039     -3417.1822      4360.967     
     31860   451.16617     -926.22553     -2780.6095      4358.0638    
     31870   422.41526     -925.5006      -1751.1045      4353.8574    
     31880   389.1344      -924.65165     -635.35705      4348.8237    
     31890   417.74745     -925.5193       314.20966      4343.4807    
     31900   421.85718     -925.71274      1437.5447      4338.2943    
     31910   391.12365     -924.93827      2629.9427      4333.7892    
     31920   395.66877     -925.13827      3334.7754      4330.4989    
     31930   413.451       -925.70861      3656.8002      4328.7608    
     31940   401.81084     -925.46815      3811.1847      4328.7376    
     31950   399.63528     -925.49264      3455.6002      4330.4907    
     31960   406.47694     -925.77121      2506.2795      4333.8566    
     31970   376.48056     -925.01877      1370.0025      4338.4168    
     31980   377.72062     -925.11567      51.910245      4343.6404    
     31990   407.39788     -925.99176     -1239.8447      4348.9178    
     32000   377.83153     -925.21292     -2262.0526      4353.6461    
     32010   368.34361     -924.9766      -3085.1753      4357.3316    
     32020   408.65861     -926.11516     -3668.3236      4359.5757    
     32030   401.29177     -925.93119     -3607.4458      4360.1129    
     32040   377.99728     -925.30532     -3143.5689      4358.955     
     32050   402.02287     -925.98936     -2636.3376      4356.3013    
     32060   411.99385     -926.28287     -1780.2677      4352.4065    
     32070   391.67355     -925.73504     -689.26553      4347.6706    
     32080   390.69507     -925.71928      350.56322      4342.5977    
     32090   391.19661     -925.73418      1379.5983      4337.6828    
     32100   399.68065     -925.96654      2271.1171      4333.4035    
     32110   370.34849     -925.14238      3087.9699      4330.1837    
     32120   357.53107     -924.76689      3646.7122      4328.3995    
     32130   396.82713     -925.82909      3722.8175      4328.3081    
     32140   418.54945     -926.40792      3394.8346      4329.9565    
     32150   386.13287     -925.49387      2762.1218      4333.2073    
     32160   407.67219     -926.08495      1566.3893      4337.76      
     32170   404.31361     -925.98483      210.11378      4343.0814    
     32180   364.65525     -924.87247     -1122.5329      4348.5425    
     32190   376.46044     -925.17748     -2387.8154      4353.5117    
     32200   395.46195     -925.6728      -3226.1522      4357.3978    
     32210   384.00891     -925.32178     -3511.8088      4359.7981    
     32220   402.27409     -925.79946     -3561.9015      4360.5506    
     32230   417.85727     -926.20906     -3389.7219      4359.621     
     32240   393.64633     -925.52361     -2778.503       4357.0944    
     32250   381.78673     -925.18243     -1939.5601      4353.2454    
     32260   392.76591     -925.46731     -999.35933      4348.4637    
     32270   402.56726     -925.71206      175.39239      4343.199     
     32280   400.00204     -925.60926      1511.3188      4338.0032    
     32290   394.60704     -925.4254       2668.0101      4333.4923    
     32300   398.19371     -925.4875       3398.3659      4330.2028    
     32310   421.84624     -926.11089      3667.7526      4328.4798    
     32320   397.43741     -925.40806      3796.072       4328.4748    
     32330   381.34178     -924.94118      3495.5875      4330.2459    
     32340   410.306       -925.72213      2573.1088      4333.6582    
     32350   409.365       -925.67065      1375.4601      4338.3104    
     32360   386.8354      -925.0193       126.77385      4343.6605    
     32370   390.58454     -925.08965     -1210.4743      4349.121     
     32380   388.63066     -924.98914     -2436.8072      4354.0663    
     32390   369.78596     -924.40884     -3289.0263      4357.9159    
     32400   381.49612     -924.66386     -3649.7834      4360.2557    
     32410   423.88444     -925.75796     -3560.682       4360.8949    
     32420   431.86558     -925.89887     -3069.5687      4359.8605    
     32430   426.10625     -925.67456     -2379.7915      4357.3636    
     32440   441.47412     -926.05222     -1576.7588      4353.7196    
     32450   431.18612     -925.73414     -641.88905      4349.3047    
     32460   407.73471     -925.06411      258.79465      4344.5504    
     32470   418.43156     -925.34923      1035.3401      4339.8755    
     32480   403.62735     -924.93         1946.2555      4335.6612    
     32490   377.20445     -924.18766      2678.2216      4332.3239    
     32500   390.00257     -924.52769      3125.2687      4330.2115    
     32510   402.96501     -924.86567      3383.92        4329.5511    
     32520   405.83816     -924.92432      3275.1139      4330.471     
     32530   408.39563     -924.97807      2751.6763      4332.9393    
     32540   397.15539     -924.64921      1939.0882      4336.7368    
     32550   411.2044      -925.01992      845.30238      4341.499     
     32560   431.4289      -925.5619      -374.36858      4346.7293    
     32570   411.03091     -924.98192     -1383.4842      4351.8723    
     32580   429.23009     -925.48322     -2393.0459      4356.4341    
     32590   450.2834      -926.08414     -3254.2291      4359.9284    
     32600   398.03991     -924.67343     -3594.2352      4361.9443    
     32610   395.92753     -924.66822     -3771.9598      4362.2757    
     32620   424.53078     -925.53108     -3606.6719      4360.8217    
     32630   414.82891     -925.35249     -2850.6075      4357.6483    
     32640   410.76707     -925.3476      -1786.3341      4353.0817    
     32650   418.22125     -925.68243     -619.98186      4347.6033    
     32660   381.85725     -924.8026       670.14256      4341.7613    
     32670   392.8061      -925.23218      1715.9877      4336.144     
     32680   400.88628     -925.58616      2667.5378      4331.2567    
     32690   364.85689     -924.70689      3570.1056      4327.5586    
     32700   355.43424     -924.54468      4141.2926      4325.4786    
     32710   397.8165      -925.81479      4250.0098      4325.3053    
     32720   407.86978     -926.19336      3986.2425      4327.13      
     32730   391.227       -925.83453      3230.2968      4330.8637    
     32740   385.50253     -925.77148      1917.5199      4336.1878    
     32750   401.67058     -926.3084       327.00668      4342.528     
     32760   395.75434     -926.22523     -1143.7288      4349.1707    
     32770   376.05013     -925.7452      -2499.4486      4355.4184    
     32780   400.83146     -926.49067     -3746.4005      4360.6102    
     32790   409.78816     -926.80082     -4603.9944      4364.1333    
     32800   375.84971     -925.92113     -4961.514       4365.5407    
     32810   375.20248     -925.96371     -4910.5263      4364.6068    
     32820   366.3638      -925.77035     -4154.3367      4361.3226    
     32830   358.22765     -925.58146     -2889.446       4355.9957    
     32840   371.9131      -925.97808     -1413.0567      4349.1838    
     32850   370.15427     -925.9238       251.03411      4341.5659    
     32860   349.06213     -925.30497      2044.7684      4333.9204    
     32870   378.14622     -926.05251      3537.5011      4327.0751    
     32880   365.41283     -925.61068      4824.2427      4321.7571    
     32890   358.91626     -925.32566      5667.8296      4318.5887    
     32900   405.95295     -926.50237      5949.5512      4318.0067    
     32910   404.23271     -926.30844      5809.8414      4320.2126    
     32920   394.6059      -925.8977       4883.8656      4325.1981    
     32930   443.98919     -927.11306      2995.1527      4332.596     
     32940   416.66686     -926.18865      877.93566      4341.6179    
     32950   383.7086      -925.11936     -1411.9556      4351.3013    
     32960   418.72368     -925.92068     -3804.7433      4360.5665    
     32970   402.96929     -925.30369     -5617.5729      4368.2738    
     32980   365.18206     -924.09551     -6701.0898      4373.501     
     32990   395.53629     -924.79176     -7268.1272      4375.6373    
     33000   406.36734     -924.95763     -6965.1651      4374.343     
     33010   378.99707     -924.09489     -5794.1743      4369.682     
     33020   392.32887     -924.38188     -4060.1374      4362.1352    
     33030   419.00465     -925.04335     -1814.1762      4352.4828    
     33040   424.0969      -925.11386      806.20552      4341.7621    
     33050   420.89396     -924.96375      3423.4353      4331.1918    
     33060   415.02806     -924.74748      5651.0586      4322.0014    
     33070   427.60974     -925.05748      7209.6978      4315.2566    
     33080   440.25761     -925.39764      7923.5947      4311.7283    
     33090   425.41123     -925.00882      7949.4721      4311.8296    
     33100   428.41444     -925.14658      7101.1058      4315.6522    
     33110   434.68226     -925.3979       5375.1238      4322.899     
     33120   421.11173     -925.10805      3084.0328      4332.8713    
     33130   421.46402     -925.19752      344.35243      4344.5671    
     33140   433.37773     -925.59908     -2617.4096      4356.734     
     33150   394.12786     -924.5643      -5330.3491      4367.9734    
     33160   377.91946     -924.1492      -7593.0349      4376.9412    
     33170   399.80956     -924.79065     -9078.5687      4382.4778    
     33180   376.91607     -924.20115     -9258.2718      4383.7889    
     33190   357.34375     -923.71018     -8273.3849      4380.6807    
     33200   410.36247     -925.23903     -6548.9289      4373.5242    
     33210   437.40258     -926.05204     -3940.3559      4363.1003    
     33220   420.22101     -925.63751     -824.96357      4350.6092    
     33230   437.35148     -926.1697       2059.4772      4337.4913    
     33240   437.23812     -926.22715      4732.6296      4325.1198    
     33250   387.05039     -924.88932      7143.1565      4314.7693    
     33260   397.19726     -925.22745      8614.5214      4307.5648    
     33270   398.96265     -925.35087      9271.2214      4304.2433    
     33280   368.49358     -924.59218      9201.4115      4305.1811    
     33290   402.21416     -925.63187      7947.6894      4310.4072    
     33300   411.9647      -926.02144      5893.5179      4319.4519    
     33310   376.36946     -925.14387      3179.6531      4331.4495    
     33320   397.32019     -925.80983     -200.42961      4345.1855    
     33330   411.95571     -926.27522     -3475.2142      4359.1173    
     33340   379.54786     -925.41085     -6186.7484      4371.683     
     33350   390.77644     -925.74713     -8576.157       4381.5094    
     33360   382.40501     -925.54552     -10067.536      4387.3927    
     33370   349.04457     -924.66191     -10272.127      4388.5407    
     33380   366.93699     -925.21438     -9360.0913      4384.7685    
     33390   381.46245     -925.67862     -7444.3664      4376.4547    
     33400   377.87875     -925.62919     -4566.9854      4364.4921    
     33410   412.55194     -926.61721     -1230.0934      4350.2277    
     33420   420.45936     -926.83558      2294.7615      4335.2464    
     33430   383.44315     -925.78212      5686.2321      4321.2132    
     33440   401.50179     -926.24482      8207.7678      4309.6945    
     33450   399.10579     -926.14537      9858.4053      4301.878     
     33460   358.1648      -924.99489      10625.35       4298.5491    
     33470   359.20313     -925.02568      10235.247      4300.087     
     33480   393.16735     -925.97421      8783.8981      4306.3763    
     33490   401.31201     -926.19868      6391.734       4316.8202    
     33500   384.63238     -925.71348      3263.0561      4330.3807    
     33510   385.04182     -925.65909     -339.11755      4345.6462    
     33520   398.27394     -925.90517     -3869.0101      4360.9475    
     33530   374.86423     -925.08987     -6845.1869      4374.5986    
     33540   372.18314     -924.82882     -9212.5198      4385.1213    
     33550   415.25535     -925.82541     -10733.318      4391.3228    
     33560   402.17057     -925.28215     -10855.398      4392.4369    
     33570   385.34972     -924.68097     -9767.1512      4388.3552    
     33580   421.54009     -925.57268     -7847.1523      4379.5693    
     33590   416.57904     -925.32763     -4924.2148      4367.0207    
     33600   402.10888     -924.82078     -1386.6967      4352.1134    
     33610   433.29087     -925.56079      2177.7274      4336.5279    
     33620   432.85799     -925.40768      5567.4215      4321.9544    
     33630   410.7436      -924.6616       8383.2449      4309.9611    
     33640   403.19916     -924.33878      10256.694      4301.8283    
     33650   416.18237     -924.6165       11001.49       4298.4015    
     33660   420.09117     -924.68361      10603.58       4300.026     
     33670   417.14725     -924.60199      9006.3002      4306.5343    
     33680   403.6573      -924.24874      6595.8842      4317.2432    
     33690   418.16273     -924.66971      3446.4669      4331.0715    
     33700   448.82078     -925.52373     -114.51964      4346.5832    
     33710   437.57532     -925.2033      -3570.0447      4362.122     
     33720   433.38378     -925.0783      -6711.9325      4376.0316    
     33730   420.13055     -924.71182     -9258.982       4386.7827    
     33740   396.18675     -924.07262     -10810.558      4393.1312    
     33750   383.55672     -923.77651     -11155.547      4394.3138    
     33760   409.39771     -924.58536     -10340.832      4390.1586    
     33770   411.3376      -924.76285     -8230.3645      4381.0899    
     33780   406.85357     -924.77147     -5102.8314      4368.1525    
     33790   429.71786     -925.53222     -1490.0542      4352.8699    
     33800   434.52766     -925.78235      2196.2088      4336.9799    
     33810   410.43081     -925.21674      5623.2558      4322.2215    
     33820   412.15587     -925.36152      8404.2975      4310.1661    
     33830   426.63377     -925.88359      10317.077      4302.0599    
     33840   399.67108     -925.28706      11122.637      4298.7322    
     33850   390.80919     -925.21388      10502.908      4300.507     
     33860   410.74699     -925.96353      8535.4928      4307.0837    
     33870   376.55578     -925.20261      5904.5676      4317.588     
     33880   347.11987     -924.52477      2846.8386      4330.8145    
     33890   371.9342      -925.29773     -419.10698      4345.3462    
     33900   389.2868      -925.81426     -3547.0567      4359.6533    
     33910   395.85611     -925.99982     -6240.5049      4372.2489    
     33920   393.59069     -925.92713     -8328.576       4381.8381    
     33930   394.63267     -925.95172     -9625.7288      4387.4212    
     33940   393.46012     -925.93465     -9994.6225      4388.3884    
     33950   378.23631     -925.54838     -9319.2825      4384.5973    
     33960   362.75541     -925.16203     -7527.4959      4376.4233    
     33970   379.42409     -925.65423     -4692.9922      4364.7825    
     33980   415.33542     -926.65462     -1298.4662      4351.0637    
     33990   403.49619     -926.30202      2188.5301      4336.8979    
     34000   404.19044     -926.27887      5117.4166      4323.9059    
     34010   401.06382     -926.14128      7360.7385      4313.4292    
     34020   381.8061      -925.55992      8901.5288      4306.4622    
     34030   389.95626     -925.75473      9423.6633      4303.6475    
     34040   371.89752     -925.2388       8918.8701      4305.1759    
     34050   344.04854     -924.45804      7556.4332      4310.7861    
     34060   376.53193     -925.34234      5430.0373      4319.8301    
     34070   393.19914     -925.76266      2914.461       4331.3281    
     34080   382.18015     -925.39334      129.7518       4344.1024    
     34090   385.66325     -925.40145     -2723.4361      4356.8444    
     34100   397.47672     -925.61724     -5215.7616      4368.2141    
     34110   421.38371     -926.16461     -7080.0644      4377.0332    
     34120   423.16819     -926.11719     -8170.0403      4382.4254    
     34130   403.6706      -925.5125      -8528.8687      4383.8901    
     34140   425.49494     -926.08892     -8259.1376      4381.2881    
     34150   404.40654     -925.50125     -6923.4659      4374.8239    
     34160   360.08077     -924.27504     -4612.3515      4365.1944    
     34170   407.16617     -925.57024     -2002.0145      4353.5255    
     34180   422.61835     -925.9644       993.20353      4341.1043    
     34190   376.25234     -924.62814      3900.2119      4329.3355    
     34200   395.52214     -925.10229      6022.949       4319.5309    
     34210   419.0835      -925.69457      7535.6282      4312.6446    
     34220   386.05752     -924.73307      8396.0756      4309.3217    
     34230   391.59574     -924.86428      8123.3992      4309.8808    
     34240   398.8011      -925.05538      6966.3298      4314.1605    
     34250   386.32195     -924.70675      5314.2554      4321.6105    
     34260   413.5496      -925.46051      3141.6571      4331.4383    
     34270   402.94605     -925.15385      787.84584      4342.6344    
     34280   412.36273     -925.39463     -1753.5928      4354.0818    
     34290   434.44938     -925.9815      -4195.5247      4364.5877    
     34300   415.31989     -925.43046     -6044.1223      4373.0161    
     34310   413.91403     -925.38486     -7264.9703      4378.4989    
     34320   430.36057     -925.85719     -7899.6524      4380.4757    
     34330   398.54227     -925.01138     -7561.7121      4378.7045    
     34340   392.89993     -924.90175     -6384.8419      4373.3939    
     34350   429.05158     -925.95748     -4622.4195      4365.1555    
     34360   400.42691     -925.21123     -2301.6182      4354.8843    
     34370   373.12598     -924.48018      200.16148      4343.7047    
     34380   392.48295     -925.01809      2578.2329      4332.7994    
     34390   377.15314     -924.56905      4887.1398      4323.2788    
     34400   376.37706     -924.51182      6649.3342      4316.1624    
     34410   403.16953     -925.21985      7631.5673      4312.2092    
     34420   413.63767     -925.49101      7785.729       4311.8154    
     34430   410.94671     -925.4207       7145.092       4315.0035    
     34440   420.33237     -925.70627      5673.2549      4321.4341    
     34450   412.47203     -925.52153      3659.1651      4330.4112    
     34460   410.52346     -925.49939      1225.6523      4340.9811    
     34470   414.43981     -925.62806     -1347.7469      4352.0043    
     34480   440.93454     -926.38096     -3705.0614      4362.2758    
     34490   429.32458     -926.08886     -5522.7163      4370.6954    
     34500   383.3709      -924.85254     -6900.3913      4376.4063    
     34510   382.20098     -924.86436     -7770.0941      4378.7787    
     34520   392.2892      -925.19837     -7669.1378      4377.4609    
     34530   381.85632     -924.97152     -6614.4404      4372.5557    
     34540   373.05954     -924.78762     -4815.8874      4364.6187    
     34550   368.92032     -924.71322     -2434.8983      4354.5605    
     34560   384.69439     -925.16438      93.284273      4343.5318    
     34570   391.74151     -925.34604      2704.0175      4332.7415    
     34580   394.08817     -925.37796      5116.0837      4323.391     
     34590   417.18779     -925.98131      6883.1234      4316.5499    
     34600   432.54111     -926.38687      7831.7331      4312.9772    
     34610   410.40888     -925.78302      7906.1699      4313.0516    
     34620   404.32504     -925.65104      6971.2519      4316.7496    
     34630   429.39631     -926.40483      5137.3228      4323.6022    
     34640   402.62923     -925.73202      2890.5088      4332.7524    
     34650   370.68403     -924.90863      356.49336      4343.1387    
     34660   380.41953     -925.22361     -2277.8955      4353.5685    
     34670   379.82647     -925.23548     -4386.8837      4362.8243    
     34680   380.09168     -925.26507     -5803.2762      4369.9196    
     34690   402.30855     -925.91229     -6685.101       4374.1923    
     34700   399.26242     -925.87838     -6981.8322      4375.2557    
     34710   377.75684     -925.34958     -6539.5613      4373.0194    
     34720   383.3761      -925.58471     -5416.8762      4367.7407    
     34730   377.42103     -925.49752     -3704.2418      4360.0034    
     34740   368.99735     -925.32836     -1589.0859      4350.6598    
     34750   383.2119      -925.767        603.11531      4340.724     
     34760   400.61973     -926.27971      2830.2986      4331.2359    
     34770   377.94361     -925.66799      5015.3312      4323.2228    
     34780   375.77067     -925.61759      6558.8199      4317.6426    
     34790   412.43355     -926.65075      7134.6425      4315.1516    
     34800   419.0837      -926.87229      6849.2158      4315.9719    
     34810   388.811       -926.08937      5842.9734      4319.9347    
     34820   370.06183     -925.6281       4236.3459      4326.5473    
     34830   374.04821     -925.78212      2070.22        4335.0429    
     34840   385.87142     -926.13237     -331.07714      4344.4094    
     34850   366.08167     -925.5806      -2433.4384      4353.5359    
     34860   356.27159     -925.28197     -4124.5667      4361.4337    
     34870   376.98555     -925.80869     -5377.8034      4367.3097    
     34880   384.68567     -925.96122     -5971.0998      4370.5952    
     34890   368.2907      -925.43933     -5884.27        4371.0369    
     34900   400.41696     -926.25888     -5387.7712      4368.6966    
     34910   412.4487      -926.51111     -4267.0999      4363.8621    
     34920   377.95126     -925.4705      -2679.1612      4357.0976    
     34930   387.12868     -925.63121     -1111.5454      4349.1632    
     34940   397.16692     -925.79086      590.45408      4340.826     
     34950   371.08742     -924.9313       2601.1788      4332.9003    
     34960   385.10636     -925.1703       4386.939       4326.2927    
     34970   422.59444     -926.04428      5585.6228      4321.7957    
     34980   416.90267     -925.7299       6266.8132      4319.9385    
     34990   423.0707      -925.77533      6090.348       4320.9862    
     35000   427.91535     -925.80934      5042.1186      4324.8273    
     35010   404.58498     -925.08409      3377.4058      4330.9632    
     35020   386.16871     -924.5036       1352.5948      4338.6114    
     35030   383.21533     -924.34245     -623.5495       4346.8329    
     35040   400.89414     -924.7409      -2297.8829      4354.7041    
     35050   416.57312     -925.07865     -3651.0316      4361.436     
     35060   417.83344     -925.02604     -4659.927       4366.3944    
     35070   413.72398     -924.842       -5201.297       4369.1157    
     35080   421.38141     -925.00471     -5197.6434      4369.3652    
     35090   416.18713     -924.82894     -4665.6058      4367.1688    
     35100   431.51491     -925.24174     -3724.7227      4362.8017    
     35110   436.00584     -925.37079     -2345.5142      4356.7417    
     35120   416.73131     -924.85379     -792.11275      4349.6539    
     35130   407.95548     -924.63298      702.20725      4342.2752    
     35140   398.0403      -924.37703      2233.1912      4335.3163    
     35150   397.94997     -924.38915      3638.3996      4329.4794    
     35160   419.28609     -924.9987       4680.1645      4325.3931    
     35170   435.61171     -925.48787      5310.2398      4323.5191    
     35180   429.3158      -925.37769      5330.2808      4324.1205    
     35190   428.82168     -925.4599       4567.5359      4327.1769    
     35200   412.51897     -925.12629      3305.7873      4332.3312    
     35210   409.27211     -925.16643      1535.2121      4338.9827    
     35220   417.14089     -925.53057     -459.54486      4346.3056    
     35230   362.64133     -924.15773     -2020.3518      4353.3879    
     35240   367.2682      -924.40726     -3314.5838      4359.4816    
     35250   428.83871     -926.25365     -4382.2673      4363.9746    
     35260   411.38333     -925.93585     -4865.6076      4366.3835    
     35270   373.01827     -925.04001     -4822.4712      4366.4883    
     35280   405.35028     -926.11315     -4468.413       4364.3166    
     35290   403.54457     -926.25276     -3605.2976      4360.0679    
     35300   357.22669     -925.13193     -2273.7735      4354.1732    
     35310   371.706       -925.6669      -879.49493      4347.2616    
     35320   374.7919      -925.85503      742.16776      4340.0122    
     35330   366.65321     -925.69629      2485.8605      4333.1867    
     35340   386.64342     -926.29217      3901.069       4327.5762    
     35350   397.55575     -926.62274      4830.2834      4323.8198    
     35360   391.78804     -926.4852       5288.0901      4322.3335    
     35370   399.1133      -926.7117       5070.1599      4323.3014    
     35380   397.737       -926.69775      4205.2066      4326.6092    
     35390   376.56965     -926.1297       2867.5762      4331.8519    
     35400   358.22214     -925.62366      1179.2348      4338.4034    
     35410   360.98965     -925.68114     -622.27315      4345.4771    
     35420   361.43765     -925.65193     -2205.1478      4352.2378    
     35430   347.63557     -925.20921     -3467.2735      4357.9394    
     35440   353.91729     -925.30936     -4346.4673      4361.9871    
     35450   386.21291     -926.12028     -4749.5666      4363.9713    
     35460   384.71168     -925.99155     -4518.5983      4363.7183    
     35470   382.09667     -925.83861     -3820.2939      4361.3439    
     35480   412.37732     -926.59988     -2781.4519      4357.1908    
     35490   414.72683     -926.58888     -1450.9627      4351.7663    
     35500   399.16965     -926.0897      -76.17559       4345.7013    
     35510   389.88428     -925.76579      1222.7731      4339.6447    
     35520   383.09989     -925.50494      2463.385       4334.2089    
     35530   399.10653     -925.87135      3330.6363      4329.9529    
     35540   390.4886      -925.55227      3905.1688      4327.2771    
     35550   365.52318     -924.78119      4163.4324      4326.4359    
     35560   402.44473     -925.72387      3881.5844      4327.529     
     35570   429.171       -926.37988      3229.5246      4330.4248    
     35580   376.14595     -924.8333       2380.6541      4334.823     
     35590   367.82038     -924.52966      1038.9731      4340.3068    
     35600   404.18326     -925.44593     -431.01667      4346.2626    
     35610   400.87392     -925.24884     -1647.1629      4352.0121    
     35620   403.14857     -925.20954     -2732.5591      4356.9734    
     35630   415.46275     -925.45143     -3701.6709      4360.6294    
     35640   388.81185     -924.62032     -4072.3246      4362.5447    
     35650   389.02591     -924.54322     -3908.6828      4362.5427    
     35660   428.97868     -925.56834     -3337.3484      4360.7043    
     35670   457.16664     -926.27939     -2390.2278      4357.3112    
     35680   439.38527     -925.74286     -1234.2609      4352.8172    
     35690   426.08219     -925.35617     -188.45246      4347.7627    
     35700   418.13089     -925.13099      707.40896      4342.6444    
     35710   407.81515     -924.84781      1570.5362      4337.8903    
     35720   395.23724     -924.50468      2364.5015      4333.8993    
     35730   385.903       -924.24839      3047.0056      4331.0381    
     35740   403.96941     -924.7512       3355.3148      4329.6067    
     35750   410.66523     -924.94258      3432.8682      4329.7498    
     35760   400.49715     -924.67262      3255.9372      4331.4988    
     35770   415.96833     -925.12304      2538.4568      4334.7535    
     35780   414.80548     -925.11994      1482.6396      4339.1879    
     35790   402.56282     -924.81735      195.97727      4344.3083    
     35800   409.90503     -925.06469     -1123.921       4349.5167    
     35810   414.65192     -925.25399     -2183.6605      4354.1998    
     35820   391.39124     -924.67985     -2801.2765      4357.8638    
     35830   423.46743     -925.66607     -3310.4971      4360.1976    
     35840   447.78595     -926.48933     -3503.4187      4360.9711    
     35850   401.45214     -925.39901     -3158.1079      4360.1063    
     35860   389.11581     -925.27047     -2656.3586      4357.7551    
     35870   430.77476     -926.67583     -2125.1719      4354.1557    
     35880   399.43432     -926.07189     -1183.3402      4349.5861    
     35890   359.1381      -925.17406     -156.87986      4344.4814    
     35900   371.96646     -925.7088       712.25616      4339.3186    
     35910   352.55675     -925.30491      1678.0224      4334.518     
     35920   330.90349     -924.78611      2694.6387      4330.5306    
     35930   369.83092     -925.91634      3302.2338      4327.8052    
     35940   382.01757     -926.28582      3676.7698      4326.6295    
     35950   372.9831      -926.05499      3850.5259      4327.177     
     35960   384.0992      -926.37602      3485.344       4329.5102    
     35970   388.94638     -926.51432      2719.7224      4333.4674    
     35980   409.82582     -927.09444      1439.203       4338.6845    
     35990   403.7396      -926.92391     -131.65273      4344.572     
     36000   363.34383     -925.79381     -1655.0314      4350.4025    
     36010   347.92542     -925.33772     -2849.3298      4355.4652    
     36020   390.7968      -926.47937     -3702.0167      4359.1895    
     36030   401.74406     -926.72326     -4044.8935      4361.1765    
     36040   377.99407     -926.0072      -3916.929       4361.2611    
     36050   368.46646     -925.68301     -3515.5518      4359.4983    
     36060   374.01267     -925.76399     -2861.8397      4356.0837    
     36070   378.55895     -925.80107     -1926.4559      4351.3358    
     36080   365.73287     -925.33983     -802.15259      4345.7008    
     36090   365.71261     -925.21701      485.03161      4339.7128    
     36100   356.82413     -924.82526      2094.3273      4333.9891    
     36110   392.88407     -925.6625       3529.9067      4329.2621    
     36120   432.55343     -926.58814      4407.0534      4326.183     
     36130   403.44522     -925.63037      4790.6042      4325.1607    
     36140   391.90059     -925.19475      4528.3462      4326.3633    
     36150   431.85628     -926.20552      3625.1171      4329.6659    
     36160   417.62304     -925.73178      2524.9488      4334.6699    
     36170   385.82698     -924.79125      1204.3766      4340.8613    
     36180   429.29211     -925.94503     -501.96688      4347.6125    
     36190   434.62295     -926.04697     -2127.2048      4354.1393    
     36200   385.85551     -924.66125     -3422.9424      4359.6776    
     36210   387.01529     -924.66535     -4441.6498      4363.6026    
     36220   392.34066     -924.78354     -4922.3123      4365.4366    
     36230   377.54196     -924.34513     -4735.4638      4364.955     
     36240   396.54195     -924.84654     -4006.4364      4362.2438    
     36250   423.26476     -925.56353     -2812.0406      4357.655     
     36260   430.14621     -925.74058     -1387.2462      4351.7551    
     36270   403.5495      -924.99789      75.866901      4345.2193    
     36280   383.71992     -924.44041      1525.3769      4338.741     
     36290   410.66408     -925.1731       2856.2679      4332.998     
     36300   443.11662     -926.06537      3898.6145      4328.602     
     36310   409.01916     -925.12745      4654.888       4326.038     
     36320   403.58203     -924.99988      4731.168       4325.6355    
     36330   415.80979     -925.37337      4206.5708      4327.4317    
     36340   402.26328     -925.03881      3337.0222      4331.1941    
     36350   419.4675      -925.5647       2004.815       4336.5122    
     36360   423.44118     -925.73205      489.82424      4342.7764    
     36370   381.21241     -924.61487     -866.40137      4349.2909    
     36380   397.58733     -925.11664     -2301.7841      4355.3999    
     36390   434.60371     -926.197       -3573.3567      4360.4308    
     36400   405.26983     -925.45165     -4349.1368      4363.7887    
     36410   375.02956     -924.68726     -4751.6311      4365.0931    
     36420   379.94633     -924.90115     -4701.7164      4364.1542    
     36430   372.66359     -924.77361     -3930.4352      4361.0119    
     36440   396.0513      -925.49763     -2716.1086      4356.0265    
     36450   407.75104     -925.90355     -1144.893       4349.7816    
     36460   385.37724     -925.36613      571.80251      4343.0197    
     36470   395.62156     -925.73784      2065.6909      4336.5379    
     36480   419.79609     -926.5165       3271.1791      4331.036     
     36490   409.56009     -926.37586      4091.1937      4327.07      
     36500   385.65365     -925.88616      4433.8258      4325.0136    
     36510   371.43097     -925.68637      4380.2968      4325.0261    
     36520   363.32781     -925.66289      3851.6527      4327.0759    
     36530   377.31938     -926.25527      2850.8406      4330.9188    
     36540   378.82457     -926.4972       1584.141       4336.0986    
     36550   352.66907     -925.94199      237.83256      4342.0321    
     36560   355.92389     -926.16205     -1160.5499      4348.0876    
     36570   383.36594     -927.02905     -2501.9025      4353.605     
     36580   354.31954     -926.30043     -3428.5051      4357.9616    
     36590   341.47049     -925.98968     -4041.1996      4360.7071    
     36600   377.54056     -927.01745     -4327.5827      4361.5462    
     36610   368.76671     -926.78688     -4046.7473      4360.3535    
     36620   344.49797     -926.11215     -3354.1781      4357.2584    
     36630   360.82783     -926.54605     -2356.0825      4352.5889    
     36640   361.22662     -926.51408     -927.31637      4346.8328    
     36650   357.27234     -926.3414       616.52765      4340.6563    
     36660   374.26836     -926.72994      2063.9788      4334.7818    
     36670   384.3559      -926.91281      3265.4715      4329.8814    
     36680   368.30706     -926.3679       4050.7979      4326.5081    
     36690   360.17354     -926.04432      4239.515       4325.0163    
     36700   362.18305     -925.99944      3971.3029      4325.4982    
     36710   369.03496     -926.0861       3363.0584      4327.833     
     36720   367.64511     -925.94334      2559.6626      4331.7458    
     36730   366.54778     -925.80957      1634.1956      4336.8672    
     36740   385.97163     -926.24425      538.30662      4342.7653    
     36750   413.44022     -926.90405     -780.53909      4348.9226    
     36760   407.34376     -926.64498     -2141.6489      4354.7244    
     36770   391.90232     -926.14341     -3460.6861      4359.5231    
     36780   361.16126     -925.22479     -4471.4142      4362.6973    
     36790   333.37138     -924.38643     -4898.8595      4363.7711    
     36800   368.43131     -925.28411     -4677.5496      4362.5408    
     36810   416.21157     -926.52572     -3820.1123      4359.1125    
     36820   376.37564     -925.34185     -2264.5901      4353.9052    
     36830   359.36043     -924.79529     -561.32938      4347.6395    
     36840   417.12826     -926.30945      898.59921      4341.1095    
     36850   427.92379     -926.51574      2367.1918      4335.0182    
     36860   390.69057     -925.40491      3688.595       4330.0481    
     36870   403.7205      -925.69989      4372.1406      4326.7913    
     36880   422.19692     -926.15309      4563.5147      4325.5723    
     36890   403.294       -925.58493      4285.715       4326.4793    
     36900   389.23051     -925.16191      3464.2743      4329.3806    
     36910   396.17163     -925.32228      2367.6308      4333.9072    
     36920   375.40319     -924.70512      1201.4741      4339.5612    
     36930   390.18893     -925.0644      -237.59315      4345.7864    
     36940   420.03183     -925.8284      -1673.0863      4351.9161    
     36950   413.18193     -925.57443     -2740.6406      4357.2862    
     36960   406.77954     -925.3419      -3687.9753      4361.3692    
     36970   403.87949     -925.21278     -4308.1415      4363.7209    
     36980   388.24048     -924.7357      -4525.283       4364.041     
     36990   375.59046     -924.34099     -4271.788       4362.2285    
     37000   399.32471     -924.95072     -3501.1017      4358.4054    
     37010   388.65912     -924.59315     -1875.0449      4352.962     
     37020   417.7076      -925.32857     -22.619296      4346.6455    
     37030   466.78778     -926.61375      1619.7858      4340.3198    
     37040   443.56862     -925.91255      3055.4935      4334.7625    
     37050   418.23817     -925.1794       3919.6587      4330.6284    
     37060   435.63756     -925.65302      4054.7608      4328.3107    
     37070   406.96822     -924.86556      3905.478       4327.8922    
     37080   388.62265     -924.37565      3349.3735      4329.2956    
     37090   406.93035     -924.90778      2443.1812      4332.2643    
     37100   375.81075     -924.06558      1826.8245      4336.408     
     37110   382.26686     -924.25898      993.35573      4341.4177    
     37120   450.47833     -926.16548     -396.29524      4346.8895    
     37130   428.55805     -925.58743     -1651.628       4352.1999    
     37140   373.14856     -924.09349     -2624.524       4356.7569    
     37150   398.73585     -924.85308     -3497.9911      4360.0824    
     37160   418.65769     -925.47007     -3893.8823      4361.7738    
     37170   403.46234     -925.13378     -3761.7761      4361.6402    
     37180   417.82936     -925.64343     -3399.6902      4359.7271    
     37190   408.6496      -925.52518     -2593.2167      4356.2193    
     37200   378.17213     -924.82043     -1395.8443      4351.4991    
     37210   401.01075     -925.59493     -183.55159      4346.1205    
     37220   434.19397     -926.67512      1015.2228      4340.6584    
     37230   403.39549     -925.98992      2256.9893      4335.6829    
     37240   384.89283     -925.63394      3118.074       4331.7574    
     37250   401.23523     -926.23983      3517.032       4329.2815    
     37260   392.68729     -926.14985      3565.4336      4328.4468    
     37270   361.3747      -925.40877      3185.4504      4329.2734    
     37280   343.9156      -925.02011      2507.6789      4331.592     
     37290   355.09033     -925.39714      1684.6697      4335.0961    
     37300   365.22471     -925.71908      791.54086      4339.4076    
     37310   379.075       -926.12505     -143.8034       4344.1099    
     37320   379.69435     -926.14713     -1081.0763      4348.7652    
     37330   394.59003     -926.55516     -2059.8347      4352.9263    
     37340   395.50623     -926.57003     -2834.0329      4356.136     
     37350   365.07294     -925.70901     -3207.572       4358.0298    
     37360   375.61697     -925.97664     -3276.609       4358.4182    
     37370   395.99709     -926.50609     -2952.4144      4357.2698    
     37380   384.01434     -926.13051     -2290.6637      4354.7337    
     37390   397.97127     -926.46945     -1497.9371      4351.1143    
     37400   416.62728     -926.93296     -641.36401      4346.7853    
     37410   368.89787     -925.55031      377.72739      4342.1573    
     37420   355.64277     -925.11425      1344.6026      4337.7023    
     37430   396.15983     -926.14477      2114.9889      4333.8686    
     37440   380.44057     -925.59361      2879.9603      4331.029     
     37450   358.25755     -924.85689      3276.9337      4329.527     
     37460   382.73591     -925.39733      3108.4175      4329.5417    
     37470   369.28169     -924.86443      2825.9165      4331.0215    
     37480   376.32113     -924.89571      2319.0077      4333.8331    
     37490   409.55041     -925.63965      1543.8319      4337.7449    
     37500   418.11001     -925.70445      679.99268      4342.4072    
     37510   424.15676     -925.72474     -187.6056       4347.4205    
     37520   427.79688     -925.70707     -1100.6697      4352.3748    
     37530   440.79734     -925.97929     -2144.4919      4356.8318    
     37540   457.34297     -926.38484     -3209.7243      4360.2942    
     37550   414.78386     -925.18471     -3875.6747      4362.2647    
     37560   361.22316     -923.69038     -3972.141       4362.4237    
     37570   403.88446     -924.86652     -3734.0167      4360.705     
     37580   419.82078     -925.30213     -3010.5298      4357.2244    
     37590   382.23075     -924.25766     -1816.4164      4352.3233    
     37600   389.57894     -924.45571     -471.6757       4346.5537    
     37610   414.08707     -925.12219      941.1389       4340.5489    
     37620   406.45985     -924.89473      2383.2841      4334.9769    
     37630   420.24404     -925.26817      3457.7082      4330.4976    
     37640   419.99633     -925.26267      4191.999       4327.6209    
     37650   404.65506     -924.85088      4484.9954      4326.6906    
     37660   410.91159     -925.04908      4257.6417      4327.8484    
     37670   422.03924     -925.39325      3537.0895      4331.0027    
     37680   423.61359     -925.48493      2342.5466      4335.831     
     37690   413.47809     -925.26         902.19258      4341.7959    
     37700   405.86254     -925.10531     -621.55105      4348.2328    
     37710   416.18032     -925.44815     -2072.4202      4354.4301    
     37720   418.19812     -925.56792     -3312.984       4359.6972    
     37730   386.71047     -924.75876     -4081.5285      4363.4452    
     37740   408.68065     -925.43679     -4585.2049      4365.2819    
     37750   427.43128     -926.0431      -4669.6859      4364.9585    
     37760   381.48734     -924.86263     -4086.5809      4362.4342    
     37770   367.76316     -924.56847     -3130.317       4357.9622    
     37780   389.26707     -925.24137     -1878.537       4351.991     
     37790   385.28481     -925.19531     -285.24405      4345.1157    
     37800   391.08255     -925.40734      1466.8893      4338.0825    
     37810   418.2679      -926.21147      3025.8087      4331.7022    
     37820   397.95171     -925.70133      4261.0259      4326.7064    
     37830   375.90539     -925.14494      4926.7309      4323.6677    
     37840   394.93577     -925.73164      4963.1807      4322.9034    
     37850   409.10082     -926.197        4577.9285      4324.4541    
     37860   388.99877     -925.72188      3790.862       4328.161     
     37870   398.84753     -926.08902      2482.1054      4333.6692    
     37880   393.48544     -926.04088      1026.3236      4340.4037    
     37890   390.57031     -926.06709     -721.53715      4347.6813    
     37900   393.80432     -926.27444     -2519.5415      4354.6889    
     37910   374.67346     -925.87325     -3984.4353      4360.5806    
     37920   343.21896     -925.13029     -4990.9088      4364.6457    
     37930   350.64604     -925.46721     -5453.6362      4366.3825    
     37940   369.93542     -926.14454     -5167.8886      4365.5568    
     37950   382.92219     -926.66058     -4324.7435      4362.2767    
     37960   383.65931     -926.85016     -3132.4623      4356.9205    
     37970   342.92866     -925.87406     -1543.8061      4350.0508    
     37980   349.04484     -926.16654      136.06235      4342.4036    
     37990   393.5666      -927.51547      1664.2344      4334.7611    
     38000   346.77779     -926.30991      3318.9372      4327.8598    
     38010   325.59956     -925.77926      4731.1687      4322.4616    
     38020   386.17266     -927.50364      5448.919       4319.2146    
     38030   373.85644     -927.19976      5819.9102      4318.4901    
     38040   339.92164     -926.2874       5471.8678      4320.4675    
     38050   375.33088     -927.28823      4093.408       4325.0002    
     38060   365.37414     -927.00873      2487.5715      4331.5141    
     38070   329.31009     -925.97866      807.35026      4339.288     
     38080   363.81845     -926.87012     -1267.6113      4347.5291    
     38090   369.60803     -926.91561     -3106.9181      4355.2872    
     38100   334.84618     -925.80624     -4381.0727      4361.6866    
     38110   350.51972     -926.06564     -5254.538       4366.0861    
     38120   376.12832     -926.55794     -5669.5448      4368.0392    
     38130   373.2472      -926.24523     -5439.4237      4367.3238    
     38140   370.0574      -925.93848     -4635.447       4364.0168    
     38150   381.63175     -926.06074     -3287.3845      4358.4781    
     38160   403.19885     -926.48435     -1563.5972      4351.3283    
     38170   403.59947     -926.35084      226.60443      4343.3648    
     38180   370.92349     -925.32943      1947.5655      4335.4266    
     38190   362.17251     -924.98525      3507.0231      4328.3226    
     38200   385.80193     -925.54045      4764.2315      4322.7852    
     38210   395.11536     -925.70406      5706.6041      4319.4179    
     38220   387.35308     -925.40962      6111.0114      4318.6758    
     38230   403.45002     -925.7934       5657.1136      4320.7677    
     38240   410.171       -925.92861      4575.0699      4325.5364    
     38250   400.92363     -925.63041      3041.7266      4332.5285    
     38260   411.91448     -925.89432      910.27759      4341.056     
     38270   424.50367     -926.19846     -1476.602       4350.1526    
     38280   372.12594     -924.69475     -3410.5312      4358.7196    
     38290   353.18236     -924.10807     -4847.7492      4365.8176    
     38300   420.89869     -925.91208     -5965.0452      4370.714     
     38310   425.58585     -925.96925     -6321.0832      4372.8513    
     38320   388.51111     -924.89143     -6046.0825      4372.0051    
     38330   409.50115     -925.43957     -5415.1875      4368.2491    
     38340   398.76043     -925.10944     -3989.112       4361.8727    
     38350   372.5183      -924.3442      -1981.7261      4353.5219    
     38360   418.78672     -925.5758      -8.0087869      4344.1076    
     38370   416.51191     -925.44428      2226.1123      4334.5762    
     38380   368.04968     -924.02444      4455.1542      4325.9732    
     38390   416.24274     -925.2802       5979.398       4319.3236    
     38400   442.42509     -925.92493      7074.1933      4315.3799    
     38410   416.81741     -925.16193      7488.7867      4314.6778    
     38420   432.27405     -925.57132      6803.9568      4317.4462    
     38430   434.94002     -925.65051      5367.5467      4323.4473    
     38440   420.332       -925.26869      3407.6296      4332.0873    
     38450   431.53689     -925.61244      703.1153       4342.4871    
     38460   389.47256     -924.46873     -2067.8437      4353.4341    
     38470   372.59105     -924.00594     -4588.362       4363.6212    
     38480   391.70802     -924.52679     -6543.1815      4371.8243    
     38490   385.28906     -924.33684     -7529.3271      4377.0672    
     38500   391.80825     -924.5147      -7624.5696      4378.8044    
     38510   431.22397     -925.62481     -7079.6681      4376.9108    
     38520   420.64177     -925.37054     -5726.9637      4371.6023    
     38530   423.94096     -925.52312     -3890.277       4363.4686    
     38540   430.98963     -925.79505     -1758.584       4353.3539    
     38550   399.0039      -924.98769      642.06024      4342.2587    
     38560   382.68957     -924.60325      3068.2927      4331.3065    
     38570   415.25558     -925.57245      5288.7379      4321.6369    
     38580   417.19382     -925.70804      7178.8912      4314.3028    
     38590   392.62084     -925.12878      8350.852       4310.2014    
     38600   403.843       -925.57042      8297.2837      4309.9037    
     38610   420.76587     -926.20867      7301.923       4313.4651    
     38620   388.30166     -925.49614      5677.0954      4320.5138    
     38630   376.19549     -925.33578      3271.348       4330.3584    
     38640   402.15153     -926.21597      374.39455      4341.9439    
     38650   374.32915     -925.57471     -2463.9802      4353.9544    
     38660   336.14238     -924.59363     -5029.3006      4365.043     
     38670   378.60194     -925.81899     -7231.5211      4373.9444    
     38680   397.32785     -926.3828      -8425.7769      4379.566     
     38690   351.06578     -925.14444     -8498.5837      4381.2599    
     38700   355.1454      -925.30185     -7835.6764      4378.8978    
     38710   399.27713     -926.56866     -6377.4527      4372.7434    
     38720   417.91172     -927.12793     -4177.069       4363.4516    
     38730   408.20938     -926.89829     -1614.7631      4352.0341    
     38740   379.3355      -926.11966      1032.9361      4339.6896    
     38750   363.79065     -925.68005      3607.806       4327.6655    
     38760   382.07905     -926.15258      5980.1799      4317.176     
     38770   367.381       -925.69051      8014.463       4309.3435    
     38780   377.55058     -925.91706      9081.5299      4305.1168    
     38790   401.14897     -926.52422      9060.037       4305.0346    
     38800   371.25817     -925.6595       8246.5874      4309.1678    
     38810   364.55695     -925.44054      6375.7591      4317.2078    
     38820   405.1482      -926.50795      3448.527       4328.3623    
     38830   372.68392     -925.50657      311.78749      4341.3587    
     38840   336.86096     -924.37557     -2703.3893      4354.7551    
     38850   370.74159     -925.11903     -5555.2533      4367.1066    
     38860   388.19464     -925.3468      -7591.3072      4377.0346    
     38870   392.19726     -925.19096     -8612.9458      4383.5014    
     38880   435.44093     -926.13915     -8925.2605      4385.9257    
     38890   454.84348     -926.46971     -8420.614       4384.0972    
     38900   434.67715     -925.78066     -7040.1377      4378.2084    
     38910   412.48668     -925.09552     -4988.6107      4368.8793    
     38920   419.81604     -925.25558     -2534.5841      4357.0641    
     38930   416.52427     -925.1255       280.81455      4343.9284    
     38940   396.01823     -924.5107       3279.9325      4330.8049    
     38950   402.0535      -924.62147      5953.322       4319.0906    
     38960   408.54172     -924.74408      8040.1224      4310.0366    
     38970   385.33959     -924.05597      9358.2034      4304.6228    
     38980   384.864       -924.01847      9649.7072      4303.4802    
     38990   425.44294     -925.14556      8891.7721      4306.7916    
     39000   426.20885     -925.19575      7302.0725      4314.2818    
     39010   404.29628     -924.63268      4819.2445      4325.2784    
     39020   421.13576     -925.1389       1623.1941      4338.6877    
     39030   426.91911     -925.32088     -1693.0574      4353.0648    
     39040   414.40686     -924.97991     -4742.292       4366.8502    
     39050   413.05781     -924.94126     -7351.4693      4378.5591    
     39060   424.21232     -925.25982     -9226.207       4386.8955    
     39070   422.89643     -925.26556     -10090.046      4390.902     
     39080   412.35621     -925.05249     -9823.4359      4390.1096    
     39090   453.12336     -926.31218     -8781.274       4384.5862    
     39100   425.72559     -925.72258     -6772.7767      4374.8245    
     39110   356.56528     -923.96041     -3926.4702      4361.7828    
     39120   374.65363     -924.57954     -750.5678       4346.8095    
     39130   397.47389     -925.29185      2738.0761      4331.4291    
     39140   368.35445     -924.51988      6298.4832      4317.2874    
     39150   383.39358     -924.94613      9073.1291      4306.0108    
     39160   408.76529     -925.66625      10854.309      4298.8769    
     39170   390.55693     -925.20226      11525.035      4296.7083    
     39180   417.46046     -926.03125      10637.362      4299.8139    
     39190   415.13547     -926.08486      8681.5846      4307.8533    
     39200   386.14676     -925.40636      5841.8044      4319.984     
     39210   401.70339     -925.94738      2255.0602      4334.9369    
     39220   396.50637     -925.87883     -1409.5441      4351.0857    
     39230   389.43245     -925.7206      -4941.9583      4366.6974    
     39240   407.57011     -926.24225     -8063.1308      4380.0653    
     39250   382.06786     -925.55151     -10292.806      4389.6637    
     39260   367.4546      -925.17665     -11407.01       4394.378     
     39270   389.535       -925.8511      -11333.42       4393.6384    
     39280   370.77398     -925.41971     -9917.8676      4387.4778    
     39290   362.87915     -925.29452     -7354.6402      4376.5883    
     39300   407.85408     -926.62476     -4172.6591      4362.2121    
     39310   386.9727      -926.09823     -414.25191      4345.912     
     39320   347.72207     -925.01566      3424.1251      4329.478     
     39330   370.70064     -925.61346      6789.1337      4314.6995    
     39340   398.23818     -926.30925      9494.224       4303.1219    
     39350   387.13794     -925.93648      11267.323      4295.9508    
     39360   359.65679     -925.12699      11890.821      4293.9646    
     39370   399.03244     -926.19083      11047.095      4297.4149    
     39380   410.90648     -926.49397      9098.8496      4305.9374    
     39390   369.60561     -925.31519      6199.2494      4318.6593    
     39400   388.03523     -925.7563       2464.7898      4334.259     
     39410   440.26997     -927.06389     -1566.7079      4351.0157    
     39420   382.7954      -925.28134     -5038.8314      4367.0515    
     39430   356.75303     -924.35853     -8002.688       4380.6798    
     39440   426.91134     -926.07781     -10328.786      4390.4562    
     39450   415.16961     -925.53201     -11348.149      4395.2788    
     39460   385.65764     -924.55757     -11203.849      4394.6561    
     39470   398.16682     -924.79209     -10027.587      4388.6872    
     39480   386.22721     -924.37001     -7654.6744      4378.008     
     39490   395.19971     -924.5313      -4406.5419      4363.8136    
     39500   421.67388     -925.15361     -572.12199      4347.7111    
     39510   419.84137     -924.96565      3401.2184      4331.5413    
     39520   417.20563     -924.74603      6845.0921      4317.1462    
     39530   431.68633     -925.00978      9417.2738      4306.08      
     39540   428.16765     -924.8066       11005.171      4299.465     
     39550   438.69822     -925.0481       11277.441      4297.9452    
     39560   428.40698     -924.76794      10359.352      4301.5929    
     39570   413.37765     -924.39689      8476.5264      4309.9565    
     39580   437.67859     -925.13706      5636.5732      4322.1443    
     39590   426.20004     -924.88322      2206.3645      4336.8428    
     39600   401.98327     -924.25518     -1489.6332      4352.4457    
     39610   416.60366     -924.67907     -5029.592       4367.2104    
     39620   416.42597     -924.68152     -7859.5447      4379.4652    
     39630   404.89443     -924.38049     -9645.5229      4387.873     
     39640   411.94692     -924.62432     -10369.328      4391.6024    
     39650   428.30143     -925.17102     -10030.124      4390.3585    
     39660   425.71992     -925.23704     -8670.9626      4384.3799    
     39670   420.00668     -925.24698     -6568.4742      4374.3956    
     39680   403.97003     -924.97353     -3785.6948      4361.5       
     39690   401.1302      -925.04742     -542.08691      4347.0805    
     39700   390.72053     -924.87827      2868.7514      4332.6997    
     39710   398.00011     -925.16887      5860.3214      4319.9284    
     39720   416.68972     -925.77286      8142.4031      4310.1012    
     39730   392.01979     -925.18027      9609.4557      4304.1931    
     39740   381.69495     -924.99506      9877.4816      4302.7714    
     39750   406.6381      -925.80703      8985.5379      4305.8745    
     39760   398.30928     -925.70921      7359.4307      4313.0418    
     39770   383.72605     -925.42727      5044.8193      4323.4741    
     39780   406.03129     -926.15054      2065.587       4336.0607    
     39790   386.2609      -925.67074     -947.91189      4349.4171    
     39800   401.15825     -926.12179     -3933.6539      4362.11      
     39810   411.09629     -926.41678     -6394.2875      4372.7519    
     39820   386.5398      -925.74986     -8122.7182      4380.201     
     39830   377.7709      -925.525       -9101.6299      4383.6773    
     39840   368.73162     -925.3013      -8988.0029      4382.7998    
     39850   347.67103     -924.74328     -7729.8025      4377.7185    
     39860   396.12852     -926.10988     -5899.7934      4369.1072    
     39870   404.08183     -926.34101     -3361.4494      4357.9409    
     39880   343.18478     -924.6387      -305.39913      4345.4873    
     39890   372.16042     -925.39838      2480.8988      4333.1843    
     39900   406.60536     -926.27782      5070.6061      4322.3326    
     39910   385.47952     -925.60865      7329.6567      4314.0834    
     39920   416.01202     -926.38836      8460.0234      4309.3653    
     39930   431.8653      -926.78976      8526.1527      4308.6089    
     39940   369.57741     -925.05303      7864.4824      4311.77      
     39950   383.17794     -925.43563      6195.769       4318.4537    
     39960   429.29459     -926.71668      3785.9466      4327.8417    
     39970   376.85693     -925.25462      1311.9091      4338.8071    
     39980   358.90107     -924.73047     -1310.0042      4350.166     
     39990   419.16581     -926.35116     -3905.8678      4360.6844    
     40000   400.61654     -925.775       -5729.102       4369.1845    
     40010   367.3128      -924.79821     -6935.6455      4374.825     
     40020   393.6361      -925.48272     -7639.4064      4377.0796    
     40030   403.83621     -925.73152     -7444.1543      4375.7045    
     40040   371.79809     -924.82384     -6348.2065      4370.876     
     40050   351.64781     -924.24528     -4497.6501      4363.1961    
     40060   374.53335     -924.83933     -2093.8825      4353.6109    
     40070   420.92696     -926.06017      423.35511      4343.2859    
     40080   437.05057     -926.43453      2915.1654      4333.4169    
     40090   409.72397     -925.61399      5068.6365      4325.1345    
     40100   414.47868     -925.69843      6408.98        4319.3696    
     40110   436.40987     -926.28201      6812.5412      4316.6654    
     40120   402.23724     -925.33428      6587.0877      4317.1478    
     40130   390.46516     -925.02438      5626.6978      4320.639     
     40140   414.21051     -925.70502      4080.8694      4326.6471    
     40150   394.5595      -925.17987      2351.9018      4334.4329    
     40160   372.23192     -924.56773      432.91141      4343.166     
     40170   408.41909     -925.56336     -1728.1883      4351.9323    
     40180   402.52464     -925.37873     -3564.3339      4359.7425    
     40190   381.45541     -924.77075     -4864.1484      4365.753     
     40200   392.87967     -925.06411     -5696.179       4369.3732    
     40210   393.64285     -925.06449     -5876.0123      4370.2597    
     40220   392.65582     -925.02263     -5422.5907      4368.3786    
     40230   422.25234     -925.83834     -4493.1343      4363.9935    
     40240   409.76737     -925.49343     -2962.6213      4357.6072    
     40250   380.76561     -924.6897      -1098.6491      4349.9738    
     40260   390.16032     -924.93732      805.97118      4341.986     
     40270   423.90285     -925.84885      2620.2374      4334.5363    
     40280   440.88977     -926.30107      4169.535       4328.449     
     40290   437.17187     -926.2034       5181.3912      4324.3993    
     40300   409.1576      -925.45524      5575.5446      4322.8108    
     40310   408.06217     -925.47172      5085.3308      4323.8061    
     40320   406.09005     -925.47638      3930.0583      4327.1276    
     40330   375.27713     -924.67962      2510.9416      4332.2223    
     40340   375.44878     -924.7321       1043.8247      4338.4167    
     40350   380.91047     -924.91737     -375.40475      4345.0181    
     40360   370.52531     -924.64673     -1732.041       4351.3587    
     40370   395.35568     -925.34341     -2965.98        4356.8045    
     40380   406.02288     -925.64501     -3766.1401      4360.7986    
     40390   395.58649     -925.36876     -4110.5025      4362.9805    
     40400   403.11927     -925.60443     -4161.7176      4363.2039    
     40410   400.8009      -925.58204     -3896.5439      4361.4731    
     40420   397.85831     -925.55959     -3092.1465      4357.9524    
     40430   411.54815     -926.01746     -1818.9985      4353.0469    
     40440   416.37169     -926.25045     -436.21884      4347.3652    
     40450   414.38113     -926.31739      769.55175      4341.5566    
     40460   392.52736     -925.8482       1910.6968      4336.1935    
     40470   364.16262     -925.18803      2938.749       4331.7992    
     40480   405.06588     -926.45112      3427.4701      4328.815     
     40490   401.33646     -926.48835      3592.4782      4327.4596    
     40500   330.01679     -924.6277       3532.4506      4327.7933    
     40510   345.21862     -925.13791      2855.06        4329.7503    
     40520   382.49819     -926.24662      1952.7691      4333.0163    
     40530   332.36636     -924.90321      1267.6026      4337.1813    
     40540   356.73374     -925.60182      265.22041      4341.8915    
     40550   412.61508     -927.15605     -742.08401      4346.689     
     40560   380.03451     -926.24594     -1452.353       4351.1135    
     40570   381.26409     -926.26865     -2199.7611      4354.8173    
     40580   422.50917     -927.39696     -2905.2905      4357.4552    
     40590   392.49028     -926.54969     -3174.4358      4358.721     
     40600   374.38675     -926.03544     -3327.7531      4358.4812    
     40610   386.78981     -926.36204     -3198.5134      4356.6841    
     40620   348.04193     -925.25451     -2392.1868      4353.425     
     40630   354.46506     -925.38238     -1337.3523      4349.0794    
     40640   389.47836     -926.27257     -199.82855      4344.1508    
     40650   389.08387     -926.15806      1062.5888      4339.1846    
     40660   383.99925     -925.90345      2115.5511      4334.7577    
     40670   386.77555     -925.85705      2854.4742      4331.3522    
     40680   378.27283     -925.4895       3365.8091      4329.3078    
     40690   391.45676     -925.71982      3446.6265      4328.8401    
     40700   387.77761     -925.47786      3205.0431      4329.9811    
     40710   364.06171     -924.68425      2685.9466      4332.6088    
     40720   391.95923     -925.31978      1829.4569      4336.473     
     40730   429.37091     -926.20995      745.44111      4341.1714    
     40740   400.25096     -925.26764     -195.10945      4346.2101    
     40750   396.42091     -925.04771     -1194.6065      4351.1346    
     40760   436.20487     -926.04347     -2211.0047      4355.4747    
     40770   431.23151     -925.81538     -2920.6569      4358.7644    
     40780   389.1865      -924.58311     -3343.0614      4360.6692    
     40790   415.4335      -925.26008     -3613.6178      4360.987     
     40800   436.39022     -925.80021     -3437.0149      4359.6135    
     40810   402.12672     -924.82802     -2823.8183      4356.6404    
     40820   366.42138     -923.8196      -1821.4432      4352.3703    
     40830   398.74256     -924.69021     -695.2474       4347.273     
     40840   421.3559      -925.28144      692.22496      4341.8974    
     40850   420.79128     -925.23509      1973.8614      4336.8805    
     40860   421.90074     -925.2464       2912.9755      4332.8124    
     40870   410.78298     -924.93085      3478.3017      4330.1229    
     40880   391.69726     -924.40099      3773.5627      4329.0722    
     40890   412.41575     -924.98149      3616.8436      4329.7805    
     40900   428.84836     -925.45316      3049.5122      4332.1701    
     40910   409.80666     -924.95404      2312.4493      4335.9829    
     40920   410.03965     -924.99786      1293.3123      4340.8664    
     40930   439.56678     -925.86686     -85.709112      4346.3355    
     40940   418.26529     -925.3417      -1406.1168      4351.76      
     40950   393.335       -924.72409     -2564.5136      4356.5168    
     40960   424.30353     -925.67268     -3532.9318      4360.0553    
     40970   410.50888     -925.40488     -3944.6402      4361.9338    
     40980   363.82726     -924.22938     -3885.4237      4361.9569    
     40990   398.73556     -925.32885     -3690.6466      4360.1389    
     41000   408.93603     -925.76332     -2858.1411      4356.6095    
     41010   393.77489     -925.50719     -1658.9041      4351.7609    
     41020   390.09744     -925.57431     -446.49831      4346.1546    
     41030   381.70027     -925.50818      788.15603      4340.3675    
     41040   367.19787     -925.25437      2128.5497      4334.9894    
     41050   400.62948     -926.32438      3099.8383      4330.6217    
     41060   397.9355      -926.394        3792.4122      4327.7201    
     41070   374.85508     -925.88383      4038.2012      4326.5915    
     41080   386.80946     -926.33611      3784.7898      4327.3415    
     41090   366.75947     -925.88162      3271.8384      4329.8596    
     41100   371.98694     -926.10566      2309.3775      4333.8948    
     41110   394.93836     -926.80625      968.42525      4338.9984    
     41120   358.57269     -925.83775     -300.23585      4344.5615    
     41130   355.3205      -925.76227     -1565.7748      4349.9807    
     41140   386.15042     -926.61148     -2728.913       4354.6597    
     41150   367.06805     -926.06098     -3417.8856      4358.0617    
     41160   362.13086     -925.8938      -3653.2073      4359.8591    
     41170   406.9037      -927.10122     -3740.6732      4359.9253    
     41180   384.83164     -926.45484     -3390.1635      4358.2381    
     41190   340.26066     -925.18452     -2564.4536      4354.971     
     41200   371.01688     -925.99321     -1591.9623      4350.5072    
     41210   397.26499     -926.66092     -464.05557      4345.317     
     41220   384.21385     -926.23753      737.75568      4339.9317    
     41230   356.86877     -925.41586      1960.3172      4334.9173    
     41240   367.49585     -925.64022      2924.1427      4330.8344    
     41250   394.48749     -926.31125      3538.9825      4328.1262    
     41260   383.11678     -925.9213       3833.7636      4327.0756    
     41270   370.1452      -925.49494      3665.5149      4327.8101    
     41280   387.97012     -925.92446      3099.611       4330.2511    
     41290   386.22511     -925.80937      2355.3334      4334.1441    
     41300   385.47903     -925.72344      1351.9617      4339.139     
     41310   405.03006     -926.19872     -37.866668      4344.7589    
     41320   398.7202      -925.95535     -1419.8579      4350.3661    
     41330   385.85973     -925.53295     -2484.3434      4355.3188    
     41340   399.17866     -925.83722     -3304.3384      4359.1042    
     41350   409.443       -926.05924     -3781.8817      4361.3362    
     41360   406.73437     -925.93253     -3956.2028      4361.7837    
     41370   388.64138     -925.38834     -3735.1026      4360.3696    
     41380   388.46561     -925.34524     -3137.4368      4357.2018    
     41390   380.74295     -925.08799     -2127.393       4352.5728    
     41400   356.76511     -924.36818     -797.63845      4346.9652    
     41410   380.24067     -924.94704      552.93496      4340.9995    
     41420   422.97389     -926.04159      1929.4233      4335.3147    
     41430   398.61624     -925.27362      3321.4695      4330.5583    
     41440   384.15365     -924.78905      4234.1456      4327.3562    
     41450   425.54684     -925.85681      4430.5602      4326.1188    
     41460   430.09928     -925.91276      4235.6181      4326.9494    
     41470   409.82083     -925.30179      3705.1608      4329.759     
     41480   427.80146     -925.76852      2697.5915      4334.2945    
     41490   422.05081     -925.58539      1367.2         4340.0957    
     41500   414.32575     -925.357       -239.44281      4346.54      
     41510   401.31223     -924.98292     -1828.9343      4352.8821    
     41520   387.09177     -924.57085     -3133.287       4358.3778    
     41530   403.4113      -925.00279     -4111.3576      4362.4029    
     41540   408.65938     -925.13002     -4603.1479      4364.4943    
     41550   386.40349     -924.49981     -4508.5529      4364.4208    
     41560   395.46074     -924.74059     -4028.1909      4362.2189    
     41570   420.93944     -925.43631     -3104.4874      4358.126     
     41580   417.10796     -925.3225      -1707.8286      4352.5906    
     41590   405.91633     -925.00745     -201.89438      4346.2668    
     41600   406.29106     -925.01291      1132.3206      4339.8584    
     41610   392.24985     -924.61287      2462.9957      4334.0034    
     41620   414.42342     -925.21564      3585.1361      4329.3146    
     41630   443.77404     -926.02889      4314.1907      4326.3042    
     41640   403.56565     -924.93506      4713.8167      4325.3127    
     41650   385.04709     -924.45859      4506.4129      4326.5114    
     41660   441.68541     -926.08619      3591.4674      4329.7994    
     41670   439.48479     -926.11187      2458.4909      4334.7748    
     41680   399.12129     -925.10052      1142.5406      4340.9121    
     41690   417.52839     -925.73467     -639.08553      4347.5804    
     41700   404.40528     -925.50579     -2318.9894      4353.9643    
     41710   354.50603     -924.24322     -3602.3272      4359.2752    
     41720   371.5862      -924.82258     -4554.0459      4362.8925    
     41730   403.25567     -925.81235     -4932.4233      4364.3681    
     41740   363.44654     -924.81331     -4560.6245      4363.5297    
     41750   374.68299     -925.22014     -3937.8982      4360.5315    
     41760   402.93723     -926.09705     -2811.3984      4355.6903    
     41770   381.5856      -925.58787     -1171.3306      4349.5497    
     41780   392.6298      -925.96525      411.22913      4342.868     
     41790   417.85083     -926.73355      1784.7805      4336.3887    
     41800   390.32673     -926.03583      3140.7286      4330.7675    
     41810   380.71337     -925.82794      4144.6331      4326.6203    
     41820   404.81436     -926.55651      4590.1569      4324.402     
     41830   398.01504     -926.43353      4637.6876      4324.3255    
     41840   382.3724      -926.06847      4111.1643      4326.4032    
     41850   371.58343     -925.83215      3063.2236      4330.3942    
     41860   366.54275     -925.73912      1717.3226      4335.8233    
     41870   386.74718     -926.33123      68.040134      4342.0593    
     41880   364.62998     -925.7309      -1400.3025      4348.3495    
     41890   324.24682     -924.59783     -2598.9805      4354.0001    
     41900   363.85043     -925.65666     -3698.2875      4358.4294    
     41910   400.62831     -926.61098     -4303.1772      4361.1271    
     41920   359.06901     -925.38144     -4084.0966      4361.8181    
     41930   373.77259     -925.70578     -3656.9786      4360.5759    
     41940   430.14962     -927.16285     -3063.2996      4357.6047    
     41950   400.5742      -926.22833     -1876.0986      4353.2119    
     41960   368.48231     -925.22845     -504.43156      4347.9474    
     41970   415.9593      -926.41939      569.98141      4342.4408    
     41980   432.02717     -926.72101      1742.8034      4337.2214    
     41990   397.53195     -925.63119      2821.7309      4332.8316    
     42000   400.19498     -925.5834       3246.0727      4329.7476    
     42010   388.28612     -925.13057      3424.8423      4328.1858    
     42020   353.00318     -924.03174      3493.1053      4328.2335    
     42030   391.67317     -924.97855      3074.8689      4329.904     
     42040   413.10522     -925.43172      2491.9921      4333.0215    
     42050   395.50176     -924.8138       1746.5226      4337.3154    
     42060   405.24823     -924.96773      590.64783      4342.4284    
     42070   420.05144     -925.26818     -700.8009       4347.8302    
     42080   409.73333     -924.8863      -1837.3368      4352.9236    
     42090   413.16712     -924.90372     -2851.2443      4357.1631    
     42100   414.65864     -924.88251     -3448.0534      4360.076     
     42110   406.81134     -924.61827     -3619.9344      4361.3737    
     42120   439.8422      -925.50798     -3494.2807      4360.9652    
     42130   434.33031     -925.35068     -2809.5325      4358.9226    
     42140   416.07008     -924.85709     -1909.6447      4355.5582    
     42150   465.70128     -926.26869     -1232.4533      4351.2807    
     42160   428.54311     -925.29302     -213.98381      4346.4415    
     42170   357.48032     -923.36707      1000.8628      4341.5167    
     42180   413.49516     -924.95509      1680.8367      4337.0457    
     42190   437.77163     -925.66616      2258.2505      4333.3679    
     42200   365.0075      -923.68134      3073.7533      4330.7696    
     42210   396.70992     -924.58954      3368.9431      4329.5946    
     42220   427.67525     -925.4789       3391.5271      4329.9964    
     42230   386.39623     -924.36539      3226.5563      4331.994     
     42240   427.43022     -925.54297      2345.898       4335.4881    
     42250   442.87601     -926.02192      1244.2289      4340.0949    
     42260   397.53346     -924.82087      163.42514      4345.311     
     42270   412.87323     -925.3019      -1218.0337      4350.6116    
     42280   437.00565     -926.03347     -2512.2501      4355.358     
     42290   390.78339     -924.81541     -3212.9674      4358.9554    
     42300   384.62833     -924.70307     -3716.6241      4361.0424    
     42310   416.94171     -925.65895     -3873.9761      4361.3821    
     42320   404.56115     -925.37982     -3439.0529      4359.9071    
     42330   388.49869     -924.99771     -2692.4652      4356.81      
     42340   405.51257     -925.52927     -1731.9312      4352.4427    
     42350   422.84321     -926.07084     -485.30526      4347.2673    
     42360   410.87075     -925.80229      777.1973       4341.8643    
     42370   390.30332     -925.29208      1693.6285      4336.8147    
     42380   371.49756     -924.81864      2427.9803      4332.556     
     42390   371.32524     -924.8459       3139.6292      4329.4393    
     42400   387.12004     -925.30516      3600.9221      4327.786     
     42410   391.66339     -925.4467       3802.2085      4327.8161    
     42420   399.65702     -925.68383      3570.7664      4329.6202    
     42430   418.56935     -926.22889      2865.0409      4333.0962    
     42440   413.67487     -926.12134      1711.5804      4337.9219    
     42450   393.73272     -925.59604      275.67146      4343.5703    
     42460   409.43669     -926.05911     -1326.5555      4349.369     
     42470   375.76711     -925.1437      -2490.3117      4354.5873    
     42480   362.15419     -924.77217     -3333.3014      4358.6586    
     42490   417.99959     -926.3213      -3985.1253      4361.1682    
     42500   412.22228     -926.16571     -4043.1558      4361.8165    
     42510   368.21022     -924.95464     -3673.3123      4360.5623    
     42520   405.0517      -925.98823     -3257.023       4357.559     
     42530   398.98782     -925.82834     -2283.4586      4353.0287    
     42540   342.67821     -924.26285     -764.70813      4347.4335    
     42550   384.15003     -925.3872       662.94552      4341.4654    
     42560   431.35058     -926.63648      1927.0875      4335.7983    
     42570   401.68978     -925.73643      3125.1442      4331.0328    
     42580   380.79089     -925.06882      3995.3425      4327.718     
     42590   390.68368     -925.22887      4371.302       4326.257     
     42600   431.3168      -926.21256      4124.892       4326.8236    
     42610   435.1604      -926.16096      3492.1782      4329.3219    
     42620   377.14571     -924.4036       2633.8569      4333.4725    
     42630   392.34553     -924.67909      1375.0521      4338.8739    
     42640   440.39324     -925.83973     -202.89047      4344.9433    
     42650   397.31174     -924.47476     -1487.7975      4350.9684    
     42660   382.69801     -923.91956     -2668.4022      4356.3255    
     42670   435.24678     -925.22287     -3687.7993      4360.4482    
     42680   417.47877     -924.58387     -3971.7209      4362.8686    
     42690   412.70154     -924.33607     -3869.2226      4363.4238    
     42700   458.18897     -925.5017      -3642.4944      4362.1429    
     42710   433.85929     -924.75672     -2846.1498      4359.1508    
     42720   424.50966     -924.45653     -1805.6993      4354.8083    
     42730   470.16695     -925.70486     -828.11667      4349.5938    
     42740   432.12287     -924.65592      535.07691      4343.996     
     42750   388.0836      -923.45336      1822.8596      4338.6366    
     42760   419.91276     -924.3573       2663.5743      4334.107     
     42770   448.07988     -925.17541      3257.8481      4330.8129    
     42780   399.38949     -923.87877      3722.7488      4329.0425    
     42790   394.29616     -923.79859      3602.8824      4328.9944    
     42800   435.67127     -925.02146      3104.3957      4330.632     
     42810   421.28679     -924.71564      2535.4228      4333.7459    
     42820   413.85481     -924.61589      1700.328       4338.0696    
     42830   439.3807      -925.44882      576.96904      4343.2173    
     42840   427.25421     -925.25545     -524.53673      4348.6814    
     42850   416.75223     -925.11379     -1771.865       4353.9311    
     42860   435.40177     -925.79526     -2941.251       4358.3801    
     42870   407.96468     -925.20335     -3669.5093      4361.4804    
     42880   398.60095     -925.10219     -4199.0525      4362.8566    
     42890   410.38821     -925.58689     -4278.9363      4362.2594    
     42900   370.93964     -924.63083     -3683.6096      4359.6487    
     42910   376.70489     -924.90063     -2572.0527      4355.2956    
     42920   416.87207     -926.11379     -1305.4529      4349.7055    
     42930   394.35666     -925.57334      253.99806      4343.4888    
     42940   388.43862     -925.4756       1629.1136      4337.36      
     42950   392.50179     -925.64072      2774.4555      4331.9671    
     42960   369.78968     -925.04518      3754.7723      4327.8539    
     42970   389.8909      -925.62746      4260.7684      4325.4693    
     42980   402.17187     -925.991        4370.806       4325.0624    
     42990   371.04185     -925.14705      4170.428       4326.7021    
     43000   391.51426     -925.73039      3357.2037      4330.2963    
     43010   433.59869     -926.91321      2053.0228      4335.4869    
     43020   403.18344     -926.08883      736.22285      4341.699     
     43030   377.19146     -925.38296     -689.10184      4348.3141    
     43040   404.89135     -926.1568      -2258.9345      4354.6563    
     43050   406.84648     -926.21047     -3554.0337      4359.9938    
     43060   385.01385     -925.60598     -4522.69        4363.6952    
     43070   365.77254     -925.06957     -5022.9784      4365.2866    
     43080   371.85757     -925.2285      -4905.8685      4364.5156    
     43090   382.96552     -925.51842     -4206.0714      4361.4197    
     43100   358.91769     -924.81913     -2956.4191      4356.3214    
     43110   376.06791     -925.2439      -1388.7047      4349.7975    
     43120   423.1375      -926.47146      434.14769      4342.5877    
     43130   405.33474     -925.88364      2379.3267      4335.5504    
     43140   393.31222     -925.45334      3795.3501      4329.5755    
     43150   421.68815     -926.13699      4485.7314      4325.3224    
     43160   381.96265     -924.92628      5009.7824      4323.1494    
     43170   376.43463     -924.66538      5119.5618      4323.3025    
     43180   441.49064     -926.341        4493.4533      4325.8383    
     43190   441.13369     -926.19051      3511.2088      4330.5077    
     43200   392.55355     -924.71574      2193.163       4336.8748    
     43210   408.97238     -925.03869      383.69158      4344.3314    
     43220   441.67419     -925.78389     -1544.3482      4352.0511    
     43230   416.86661     -924.92763     -3211.5243      4359.1336    
     43240   388.86158     -923.98998     -4569.5236      4364.7712    
     43250   396.886       -924.04796     -5437.2931      4368.3024    
     43260   421.74836     -924.56508     -5723.3277      4369.2851    
     43270   404.9544      -923.93466     -5139.8145      4367.5723    
     43280   417.08783     -924.12424     -3962.3262      4363.409     
     43290   445.46538     -924.76987     -2464.3659      4357.333     
     43300   444.648       -924.62607     -806.93816      4350.043     
     43310   427.03657     -924.04212      1055.7936      4342.3265    
     43320   430.40891     -924.05868      2899.9835      4335.054     
     43330   454.41934     -924.66639      4365.7941      4329.0828    
     43340   471.03428     -925.10434      5210.109       4325.0981    
     43350   468.67603     -925.06712      5607.6856      4323.5187    
     43360   438.84478     -924.30725      5439.9431      4324.5459    
     43370   451.76338     -924.76495      4452.6037      4328.1172    
     43380   446.93823     -924.75048      3011.1041      4333.823     
     43390   424.2137      -924.24375      1126.9731      4341.0113    
     43400   398.45126     -923.63026     -871.65451      4348.8277    
     43410   406.76382     -923.93822     -2694.7669      4356.3386    
     43420   410.11567     -924.08783     -4034.5127      4362.6821    
     43430   428.92368     -924.66407     -5045.1316      4367.1851    
     43440   408.66973     -924.15592     -5508.2526      4369.3481    
     43450   410.22011     -924.25499     -5438.725       4368.9155    
     43460   434.45224     -924.9917      -4730.335       4365.8974    
     43470   432.23563     -925.0068      -3339.8599      4360.6118    
     43480   411.96976     -924.52079     -1538.743       4353.6958    
     43490   441.67889     -925.42024      259.3644       4345.9797    
     43500   468.24754     -926.24694      1965.7779      4338.3126    
     43510   441.06406     -925.60155      3524.7803      4331.4995    
     43520   398.81442     -924.53674      4626.3162      4326.2673    
     43530   406.2028      -924.84444      5100.3002      4323.1372    
     43540   417.00364     -925.25302      5216.6811      4322.3651    
     43550   396.56972     -924.79774      4838.889       4324.0252    
     43560   389.16777     -924.69818      3893.5683      4327.9721    
     43570   399.19748     -925.07554      2467.9354      4333.7997    
     43580   389.66125     -924.89667      806.55858      4340.8788    
     43590   391.62847     -925.02101     -1055.8353      4348.4419    
     43600   400.77732     -925.33188     -2659.2699      4355.6323    
     43610   391.24623     -925.11604     -3880.0718      4361.6769    
     43620   393.31593     -925.21609     -4679.9247      4365.9718    
     43630   428.38401     -926.24103     -5130.3289      4368.0982    
     43640   426.3635      -926.25724     -5085.3513      4367.8141    
     43650   399.0223      -925.58694     -4544.7193      4365.1071    
     43660   390.01307     -925.42679     -3545.0658      4360.2069    
     43670   401.28556     -925.82781     -2182.5128      4353.5638    
     43680   382.44681     -925.38243     -372.85729      4345.819     
     43690   374.83211     -925.22902      1490.008       4337.805     
     43700   397.81837     -925.90878      3156.3643      4330.3934    
     43710   409.70465     -926.27961      4563.0458      4324.3713    
     43720   362.33586     -925.00192      5653.8864      4320.4143    
     43730   370.27748     -925.25244      5914.5809      4319.0343    
     43740   423.47838     -926.76526      5432.2263      4320.3924    
     43750   386.54051     -925.78479      4660.5695      4324.3289    
     43760   363.46649     -925.18682      3266.2652      4330.5115    
     43770   392.77136     -926.02881      1278.9273      4338.3282    
     43780   378.36213     -925.63796     -753.86959      4346.8948    
     43790   361.96699     -925.1704      -2628.2294      4355.2647    
     43800   393.57084     -926.01388     -4331.9386      4362.5318    
     43810   400.23308     -926.15141     -5463.6933      4367.8712    
     43820   389.66905     -925.8107      -5942.9655      4370.701     
     43830   400.80022     -926.07367     -5910.8631      4370.7372    
     43840   393.2128      -925.81395     -5247.9983      4367.9578    
     43850   393.72281     -925.77239     -4149.6265      4362.6327    
     43860   408.71513     -926.11542     -2622.7363      4355.2584    
     43870   384.55495     -925.34751     -550.71515      4346.5519    
     43880   387.71987     -925.31033      1483.31        4337.4602    
     43890   388.39878     -925.16518      3414.2478      4328.9444    
     43900   372.53187     -924.53419      5191.5913      4321.9183    
     43910   403.93513     -925.19501      6450.1804      4317.2202    
     43920   442.00083     -926.02886      6950.3684      4315.4579    
     43930   396.24031     -924.56831      6794.4106      4316.9166    
     43940   403.93903     -924.63484      5722.6446      4321.568     
     43950   450.76124     -925.79628      3885.7983      4328.9813    
     43960   432.49416     -925.17515      1734.8619      4338.3703    
     43970   403.74401     -924.28796     -597.85248      4348.7625    
     43980   411.03051     -924.40282     -3015.9184      4359.0672    
     43990   426.68659     -924.74911     -5121.109       4368.1342    
     44000   428.00604     -924.71295     -6574.9091      4374.9301    
     44010   420.86887     -924.46869     -7320.7242      4378.7023    
     44020   434.82666     -924.84214     -7437.0404      4379.0264    
     44030   431.45902     -924.76866     -6770.7159      4375.7961    
     44040   417.62282     -924.43098     -5327.1656      4369.2838    
     44050   427.46664     -924.7644      -3305.0449      4360.1396    
     44060   421.696       -924.667       -865.24803      4349.3048    
     44070   410.01713     -924.39838      1685.8212      4337.9193    
     44080   413.90612     -924.55274      4164.5369      4327.1844    
     44090   413.06738     -924.57356      6418.4189      4318.2693    
     44100   411.48652     -924.58231      7992.6883      4312.2282    
     44110   435.3805      -925.32634      8555.1951      4309.8137    
     44120   447.57578     -925.79222      8171.6191      4311.3425    
     44130   423.39088     -925.28769      6854.1324      4316.7019    
     44140   405.09874     -924.95784      4668.9975      4325.3528    
     44150   400.55812     -924.99753      1866.6905      4336.3461    
     44160   392.57168     -924.91389     -1086.2934      4348.4239    
     44170   370.71646     -924.40413     -3765.8535      4360.2145    
     44180   377.70891     -924.65718     -6006.1067      4370.4208    
     44190   425.09519     -926.02332     -7630.5227      4377.9286    
     44200   422.44921     -926.01731     -8350.1824      4381.9089    
     44210   390.93238     -925.22248     -8262.1774      4381.944     
     44220   409.08603     -925.81845     -7516.6055      4378.0122    
     44230   399.88164     -925.65962     -5890.0979      4370.4427    
     44240   374.60852     -925.03948     -3549.1123      4359.981     
     44250   386.20041     -925.41202     -747.2487       4347.7251    
     44260   408.37155     -926.04707      2223.942       4334.9942    
     44270   399.75056     -925.80312      5002.8062      4323.1823    
     44280   405.31297     -925.94262      7216.1008      4313.5855    
     44290   393.85349     -925.61289      8747.5123      4307.247     
     44300   368.50736     -924.90614      9308.7938      4304.8907    
     44310   390.21206     -925.51989      8757.0464      4306.8137    
     44320   393.37066     -925.62914      7308.103       4312.83      
     44330   388.05884     -925.50742      5054.2966      4322.3345    
     44340   376.23252     -925.19012      2291.2764      4334.3478    
     44350   365.03344     -924.85822     -711.21948      4347.6211    
     44360   400.90703     -925.79776     -3725.9754      4360.7505    
     44370   427.79645     -926.46883     -6244.398       4372.2989    
     44380   394.16203     -925.46627     -7931.8786      4381.029     
     44390   406.51265     -925.75925     -9077.657       4386.0551    
     44400   433.12163     -926.47532     -9444.0868      4386.7788    
     44410   401.99862     -925.62648     -8617.967       4382.9947    
     44420   370.45597     -924.78379     -6861.5773      4375.058     
     44430   401.32148     -925.66927     -4555.821       4363.7832    
     44440   391.42912     -925.40261     -1586.7442      4350.2833    
     44450   357.11638     -924.42535      1744.6376      4335.9671    
     44460   371.57236     -924.75926      4892.7831      4322.3929    
     44470   403.20056     -925.53537      7697.4725      4311.0365    
     44480   406.29035     -925.51441      9779.583       4303.1875    
     44490   402.15939     -925.31537      10718.616      4299.8007    
     44500   418.56616     -925.7192       10378.299      4301.3251    
     44510   410.70891     -925.47974      8978.2032      4307.6585    
     44520   402.92601     -925.25959      6462.9249      4318.2046    
     44530   407.1052      -925.35955      3195.9299      4331.8669    
     44540   414.17446     -925.50959     -405.95905      4347.1657    
     44550   401.5713      -925.077       -3829.5961      4362.4289    
     44560   409.40892     -925.18242     -6880.765       4376.0078    
     44570   421.28617     -925.38303     -9231.1869      4386.4105    
     44580   426.37571     -925.4054      -10675.96       4392.4588    
     44590   401.27401     -924.6159      -10882.458      4393.4279    
     44600   397.75266     -924.44825     -9967.2822      4389.1841    
     44610   417.39201     -924.92062     -7991.335       4380.1651    
     44620   418.12176     -924.84682     -5035.8088      4367.3378    
     44630   396.72818     -924.12344     -1453.6862      4352.1333    
     44640   422.002       -924.64475      2118.9011      4336.2551    
     44650   440.77796     -924.93383      5543.6622      4321.3996    
     44660   411.25829     -923.87472      8618.6088      4309.1555    
     44670   416.18565     -923.79134      10733.379      4300.9046    
     44680   454.76148     -924.67282      11571.337      4297.5863    
     44690   451.57443     -924.45589      11226.547      4299.5827    
     44700   452.51575     -924.42639      9513.8153      4306.7365    
     44710   455.37353     -924.49727      6832.8755      4318.3037    
     44720   448.82807     -924.33096      3445.4048      4333.08      
     44730   455.26891     -924.52605     -450.02744      4349.5067    
     44740   453.84426     -924.49821     -4240.8801      4365.764     
     44750   426.15536     -923.74037     -7383.8936      4380.0466    
     44760   424.62883     -923.72077     -9883.0659      4390.8093    
     44770   437.89941     -924.14747     -11393.513      4396.8363    
     44780   446.90207     -924.51999     -11655.823      4397.3983    
     44790   420.17956     -923.95994     -10536.553      4392.3927    
     44800   401.31232     -923.64422     -8316.7314      4382.3897    
     44810   410.42652     -924.10259     -5242.5201      4368.5098    
     44820   417.93741     -924.49601     -1586.027       4352.2749    
     44830   402.35266     -924.20151      2405.0239      4335.4615    
     44840   429.51479     -925.05332      6083.6618      4319.9375    
     44850   445.29305     -925.58056      9051.1389      4307.3832    
     44860   420.58513     -924.99045      11111.864      4299.113     
     44870   419.04739     -925.06006      12013.551      4296.0024    
     44880   444.57032     -925.91817      11477.35       4298.398     
     44890   444.046       -926.08791      9516.054       4306.02      
     44900   422.81067     -925.68898      6498.573       4317.9658    
     44910   382.57123     -924.72284      2895.4563      4332.8515    
     44920   375.06728     -924.6011      -1081.3274      4348.9917    
     44930   388.96912     -925.01484     -4831.3423      4364.5223    
     44940   374.08722     -924.5887      -7709.9205      4377.6725    
     44950   388.06094     -924.94944     -9711.9851      4387.0566    
     44960   418.34486     -925.78116     -10724.877      4391.7306    
     44970   380.11927     -924.74075     -10433.477      4391.2642    
     44980   387.47904     -924.9906      -9268.2146      4385.8404    
     44990   422.224       -926.01512     -7193.4879      4376.1065    
     45000   389.74456     -925.17096     -4118.5052      4363.1496    
     45010   389.03894     -925.1824      -670.05279      4348.4818    
     45020   436.71787     -926.5091       2644.8622      4333.7556    
     45030   402.03211     -925.53174      5899.4069      4320.5374    
     45040   380.687       -924.91529      8380.0823      4310.2694    
     45050   434.40553     -926.39499      9609.5909      4304.0061    
     45060   429.51757     -926.28733      9937.0159      4302.2423    
     45070   373.37594     -924.79178      9397.6152      4305.0504    
     45080   378.06264     -924.99957      7609.6822      4312.0991    
     45090   387.6826      -925.33698      4984.7023      4322.5352    
     45100   390.44349     -925.46605      2010.3383      4335.1283    
     45110   374.99475     -925.05928     -961.65717      4348.4824    
     45120   378.84785     -925.15514     -3821.7015      4361.1888    
     45130   404.15894     -925.82346     -6278.2062      4371.9064    
     45140   401.33981     -925.7096      -7919.1005      4379.5009    
     45150   379.92355     -925.09138     -8624.3247      4383.2342    
     45160   398.16071     -925.59031     -8516.7031      4382.8261    
     45170   403.95329     -925.75741     -7480.7264      4378.4168    
     45180   396.7395      -925.57237     -5730.1132      4370.5813    
     45190   409.97005     -925.95155     -3498.2229      4360.2306    
     45200   404.18778     -925.7888      -823.72859      4348.491     
     45210   390.19147     -925.37702      1894.7792      4336.6449    
     45220   403.92069     -925.71448      4303.5356      4325.9512    
     45230   394.03478     -925.38223      6316.2857      4317.4931    
     45240   387.48805     -925.14182      7568.1375      4312.1198    
     45250   389.38366     -925.13806      8103.4159      4310.3308    
     45260   400.94771     -925.40767      7736.9527      4312.2811    
     45270   418.67608     -925.85344      6310.6174      4317.7201    
     45280   393.41722     -925.1053       4327.9174      4325.9516    
     45290   380.37066     -924.68394      2042.4773      4336.0235    
     45300   416.36215     -925.59302     -512.52409      4346.8428    
     45310   416.88524     -925.49015     -2831.7599      4357.2226    
     45320   391.52531     -924.66291     -4658.1514      4366.0848    
     45330   402.84113     -924.84858     -6058.2759      4372.5832    
     45340   434.17686     -925.58902     -6915.987       4376.1009    
     45350   424.0918      -925.19917     -6994.8961      4376.2998    
     45360   396.51598     -924.35169     -6279.5222      4373.2179    
     45370   414.25428     -924.77362     -4999.5329      4367.2646    
     45380   421.68628     -924.90791     -3151.7292      4359.1236    
     45390   421.89586     -924.84268     -897.92613      4349.7214    
     45400   432.31363     -925.05817      1420.4245      4340.1398    
     45410   448.65573     -925.44404      3466.6311      4331.4506    
     45420   420.59073     -924.61338      5139.7515      4324.5749    
     45430   411.37624     -924.32534      6021.1548      4320.2154    
     45440   425.98027     -924.71734      6212.161       4318.7175    
     45450   404.45604     -924.12609      5945.7209      4320.1111    
     45460   403.98057     -924.13345      5004.5287      4324.2042    
     45470   440.41108     -925.17761      3379.3345      4330.5104    
     45480   417.42805     -924.58579      1668.8175      4338.266     
     45490   392.1841      -923.93363     -8.6557117      4346.6566    
     45500   441.40006     -925.35302     -1877.628       4354.8748    
     45510   458.72571     -925.91478     -3524.7332      4362.0641    
     45520   419.74271     -924.94942     -4698.5819      4367.4748    
     45530   412.4149      -924.88913     -5534.1133      4370.5747    
     45540   428.13203     -925.50681     -5872.9998      4371.017     
     45550   396.12226     -924.82537     -5409.6195      4368.7101    
     45560   377.47502     -924.50978     -4391.7641      4363.9214    
     45570   392.73476     -925.12571     -2945.5257      4357.1838    
     45580   398.65119     -925.46722     -1091.0381      4349.2277    
     45590   390.44644     -925.39086      797.8233       4340.9366    
     45600   394.62918     -925.62986      2551.8928      4333.1931    
     45610   395.4332      -925.75262      4211.8691      4326.8015    
     45620   395.75786     -925.84447      5332.6443      4322.4787    
     45630   411.18728     -926.35279      5586.8505      4320.6809    
     45640   396.91203     -926.03661      5287.7295      4321.4887    
     45650   374.6743      -925.48998      4458.7156      4324.7189    
     45660   380.8267      -925.7165       3142.7657      4329.9531    
     45670   380.73107     -925.75168      1660.7991      4336.5673    
     45680   379.27531     -925.72985      44.39286       4343.8554    
     45690   389.37215     -926.01178     -1688.7047      4351.0521    
     45700   376.17729     -925.63165     -3032.094       4357.369     
     45710   381.65637     -925.75924     -4082.4416      4362.1763    
     45720   408.89668     -926.48809     -4885.9156      4364.9953    
     45730   376.5944      -925.56827     -5040.984       4365.4916    
     45740   341.31862     -924.56342     -4570.7459      4363.6249    
     45750   392.70673     -925.95186     -3686.337       4359.6451    
     45760   410.98837     -926.40672     -2142.7148      4354.0214    
     45770   385.76649     -925.65211     -368.38962      4347.4919    
     45780   407.69482     -926.20162      1069.7997      4340.8821    
     45790   415.49146     -926.35392      2342.2141      4334.8735    
     45800   381.26032     -925.34253      3565.4421      4330.0544    
     45810   391.87067     -925.57624      4157.5319      4326.9453    
     45820   411.78397     -926.06616      4131.4683      4325.7952    
     45830   381.08965     -925.15598      3854.3418      4326.581     
     45840   362.44638     -924.58087      3241.2785      4329.1454    
     45850   367.37336     -924.64361      2313.2541      4333.1851    
     45860   390.00257     -925.17661      1377.612       4338.2715    
     45870   410.874       -925.64331      283.31211      4343.9495    
     45880   421.53857     -925.82265     -904.89882      4349.7078    
     45890   428.72887     -925.91135     -2097.6223      4354.9893    
     45900   415.17536     -925.43686     -3036.1811      4359.2458    
     45910   410.82848     -925.23139     -3715.3333      4362.0405    
     45920   415.94198     -925.29871     -4085.6554      4363.0656    
     45930   397.81849     -924.73172     -3955.0807      4362.1691    
     45940   384.31981     -924.29778     -3260.0918      4359.4347    
     45950   419.88276     -925.22069     -2072.9654      4355.2105    
     45960   444.45905     -925.83679     -723.00544      4350.0611    
     45970   425.79787     -925.26615      496.9404       4344.6239    
     45980   413.26176     -924.87893      1441.3695      4339.4677    
     45990   407.9698      -924.69532      2315.2242      4335.0416    
     46000   423.30023     -925.08878      2986.6574      4331.7367    
     46010   388.2311      -924.08615      3481.0874      4329.8573    
     46020   370.27261     -923.55382      3607.1841      4329.612     
     46030   431.06361     -925.1902       3229.3628      4331.0394    
     46040   449.25836     -925.63133      2737.475       4333.9729    
     46050   415.15233     -924.62643      1975.9339      4338.1677    
     46060   426.11284     -924.87168      778.35506      4343.2552    
     46070   436.84427     -925.1001      -484.23862      4348.6858    
     46080   429.79493     -924.83559     -1564.267       4353.8747    
     46090   458.84427     -925.584       -2655.3197      4358.2996    
     46100   436.19456     -924.91834     -3413.7718      4361.4627    
     46110   394.17979     -923.73642     -3771.5302      4363.0105    
     46120   420.87902     -924.4722      -3910.3777      4362.7705    
     46130   433.88773     -924.84088     -3501.1594      4360.7031    
     46140   407.18019     -924.12295     -2495.4339      4357.0178    
     46150   427.59596     -924.72598     -1357.3354      4352.1822    
     46160   433.86111     -924.94963     -106.2694       4346.7465    
     46170   416.06368     -924.5201       1229.8984      4341.3057    
     46180   411.1223      -924.45567      2246.2439      4336.4702    
     46190   422.80338     -924.86548      2899.2853      4332.7085    
     46200   414.94253     -924.74698      3474.4207      4330.3313    
     46210   413.07244     -924.80931      3653.2502      4329.5818    
     46220   397.49432     -924.49871      3473.4062      4330.5387    
     46230   405.24571     -924.83701      2963.1672      4333.1134    
     46240   441.13253     -925.97316      2044.1323      4337.0593    
     46250   427.51785     -925.75261      987.93175      4341.9569    
     46260   408.61265     -925.38578     -159.82575      4347.3107    
     46270   424.05788     -925.97116     -1463.3894      4352.5746    
     46280   424.70708     -926.15199     -2742.482       4357.1381    
     46290   377.49638     -924.98995     -3636.0351      4360.4105    
     46300   361.23221     -924.6563      -4123.2577      4361.967     
     46310   388.8788      -925.52693     -4170.3894      4361.5794    
     46320   379.58961     -925.36025     -3525.7913      4359.2461    
     46330   382.29961     -925.51256     -2560.9844      4355.265     
     46340   400.39369     -926.08371     -1425.4435      4350.0982    
     46350   376.18309     -925.46684     -18.57068       4344.2973    
     46360   369.95741     -925.33052      1282.5307      4338.5128    
     46370   390.48186     -925.92099      2427.7901      4333.3551    
     46380   383.98957     -925.75153      3441.5478      4329.3569    
     46390   375.24558     -925.51104      4172.4578      4326.9808    
     46400   411.92155     -926.52964      4331.4121      4326.5466    
     46410   420.97677     -926.78946      4033.8994      4328.1307    
     46420   398.40617     -926.18366      3216.4011      4331.5881    
     46430   383.68977     -925.79661      1861.6738      4336.5344    
     46440   379.06781     -925.67749      340.04015      4342.3512    
     46450   396.97948     -926.17058     -1060.028       4348.3338    
     46460   391.93558     -926.01776     -2254.9852      4353.8224    
     46470   354.98026     -924.9676      -3284.8303      4358.2479    
     46480   368.83261     -925.31253     -4179.6465      4361.1156    
     46490   379.24558     -925.54276     -4443.1722      4362.0213    
     46500   355.78293     -924.81792     -3885.6754      4360.8518    
     46510   379.77239     -925.39105     -3125.8266      4357.8485    
     46520   407.75432     -926.0449      -2083.4087      4353.3857    
     46530   394.62441     -925.54061     -530.42066      4347.9774    
     46540   418.67864     -926.058        987.66756      4342.338     
     46550   439.16979     -926.46484      2229.2542      4337.176     
     46560   410.74275     -925.52683      3171.5814      4333.0724    
     46570   417.31828     -925.57827      3603.3172      4330.4535    
     46580   418.60745     -925.49147      3662.4048      4329.522     
     46590   385.8106      -924.47387      3463.4059      4330.3059    
     46600   391.6928      -924.53662      2876.1014      4332.7047    
     46610   415.33204     -925.08696      1984.5154      4336.4465    
     46620   401.81164     -924.60868      1032.1107      4341.1267    
     46630   407.53931     -924.67163     -142.41817      4346.2891    
     46640   432.56434     -925.27255     -1348.8795      4351.3883    
     46650   429.98555     -925.12064     -2248.4913      4355.8678    
     46660   423.03637     -924.86951     -2998.7128      4359.2897    
     46670   409.30112     -924.44671     -3591.3355      4361.2963    
     46680   398.87405     -924.12693     -3686.7636      4361.6184    
     46690   413.31211     -924.50419     -3266.1903      4360.2132    
     46700   436.22888     -925.12832     -2536.1315      4357.2737    
     46710   417.84487     -924.62091     -1457.4008      4353.1552    
     46720   420.93831     -924.72015     -360.62758      4348.3598    
     46730   463.95005     -925.94476      675.907        4343.4059    
     46740   441.37038     -925.37704      1852.3678      4338.7931    
     46750   396.50217     -924.20257      2745.0959      4335.0545    
     46760   420.98782     -924.96006      3068.8329      4332.5931    
     46770   426.91491     -925.21854      3250.5041      4331.5779    
     46780   391.85912     -924.34461      3189.0076      4332.0873    
     46790   417.70597     -925.1664       2528.8785      4334.0748    
     46800   415.18062     -925.21059      1769.3726      4337.2555    
     46810   375.38919     -924.20919      1007.8082      4341.2802    
     46820   415.3782      -925.4141      -154.48434      4345.7704    
     46830   423.81979     -925.74697     -1170.7031      4350.205     
     46840   371.06942     -924.3662      -1879.7738      4354.1089    
     46850   411.1255      -925.54714     -2732.5209      4357.1203    
     46860   441.21834     -926.45655     -3255.5093      4358.8537    
     46870   371.97313     -924.60009     -3031.6232      4359.0788    
     46880   381.52344     -924.91016     -2777.2662      4357.8659    
     46890   431.67624     -926.33948     -2362.2916      4355.3437    
     46900   399.83804     -925.48901     -1381.0249      4351.7332    
     46910   396.82815     -925.43173     -389.62479      4347.4745    
     46920   421.58612     -926.1402       517.09612      4343.0356    
     46930   397.49115     -925.49014      1488.639       4338.8525    
     46940   381.75518     -925.06515      2220.1096      4335.3694    
     46950   395.17405     -925.44328      2589.939       4332.921     
     46960   384.54017     -925.14621      2949.6097      4331.6973    
     46970   405.89216     -925.73786      2893.1401      4331.8464    
     46980   391.55446     -925.33888      2522.8948      4333.3506    
     46990   358.52772     -924.41548      1970.9578      4336.0414    
     47000   391.57699     -925.3134       1239.8321      4339.6636    
     47010   431.70018     -926.39964      356.70932      4343.8769    
     47020   414.66044     -925.90561     -499.48763      4348.2766    
     47030   414.02936     -925.87856     -1527.6486      4352.4463    
     47040   404.21782     -925.60091     -2460.6269      4355.9097    
     47050   382.16017     -924.98417     -3019.1288      4358.2317    
     47060   390.05526     -925.19528     -3301.6634      4359.1366    
     47070   404.74943     -925.59285     -3220.5584      4358.4911    
     47080   393.36325     -925.26728     -2656.175       4356.3387    
     47090   390.33939     -925.17187     -1779.6067      4352.9399    
     47100   412.08568     -925.75972     -788.73004      4348.7043    
     47110   406.29823     -925.58223      258.59024      4344.1011    
     47120   376.94687     -924.74779      1308.9538      4339.6243    
     47130   391.62776     -925.12634      2104.2835      4335.7569    
     47140   418.76803     -925.8437       2672.536       4332.8732    
     47150   397.48335     -925.21901      3262.6276      4331.2513    
     47160   394.32867     -925.10126      3516.3639      4331.1529    
     47170   422.58504     -925.85642      3143.9359      4332.6881    
     47180   417.63715     -925.69529      2387.3502      4335.6985    
     47190   417.50823     -925.67887      1353.6088      4339.8375    
     47200   405.24802     -925.33035      239.43308      4344.6325    
     47210   385.10001     -924.76014     -938.80067      4349.5605    
     47220   403.02385     -925.24015     -2164.1624      4354.0615    
     47230   402.48558     -925.20231     -2980.6096      4357.5715    
     47240   389.00413     -924.80504     -3464.2485      4359.6913    
     47250   403.21008     -925.17541     -3632.5705      4360.184     
     47260   401.99934     -925.11717     -3213.362       4358.9778    
     47270   393.51638     -924.85544     -2389.8374      4356.2622    
     47280   429.29215     -925.82205     -1528.4581      4352.41      
     47290   409.05369     -925.23407     -361.33733      4347.8466    
     47300   399.4328      -924.94353      829.27083      4343.1115    
     47310   441.27279     -926.08242      1752.0746      4338.7549    
     47320   425.10473     -925.62362      2538.1431      4335.2193    
     47330   382.8598      -924.45205      3066.2371      4332.8691    
     47340   425.71686     -925.64998      3029.2717      4331.9374    
     47350   422.72579     -925.5884       2881.7111      4332.4316    
     47360   360.10611     -923.87715      2640.9278      4334.2886    
     47370   397.76846     -924.94693      1771.5299      4337.3746    
     47380   424.42932     -925.70906      805.90383      4341.3127    
     47390   397.80736     -924.99904     -30.633884      4345.6608    
     47400   401.65312     -925.13909     -1018.9436      4350.0113    
     47410   405.39279     -925.27911     -1948.1203      4353.9053    
     47420   389.76618     -924.88315     -2652.0088      4356.9046    
     47430   411.47311     -925.52997     -3168.8489      4358.6647    
     47440   410.44375     -925.55857     -3164.9604      4358.9494    
     47450   383.97018     -924.88648     -2651.3894      4357.7547    
     47460   427.12967     -926.1576      -2075.548       4355.2999    
     47470   443.62423     -926.71481     -1313.9337      4351.8647    
     47480   395.46418     -925.49464     -408.24154      4347.8086    
     47490   386.45174     -925.36104      293.0163       4343.5432    
     47500   388.18106     -925.52464      1019.2096      4339.4107    
     47510   357.59809     -924.77631      1848.9194      4335.7576    
     47520   368.25399     -925.15584      2434.5838      4332.9581    
     47530   384.70338     -925.68755      2868.4448      4331.2958    
     47540   377.01245     -925.54054      3127.7726      4330.9768    
     47550   407.14778     -926.44348      2891.5259      4332.1131    
     47560   413.62449     -926.7          2289.3301      4334.6087    
     47570   355.76521     -925.16507      1560.1799      4338.2009    
     47580   369.9864      -925.61372      422.52045      4342.5374    
     47590   416.21845     -926.94396     -816.25703      4347.0997    
     47600   373.59244     -925.80302     -1663.7448      4351.3244    
     47610   353.08569     -925.26248     -2349.8016      4354.7931    
     47620   393.68387     -926.40607     -2940.2698      4357.1701    
     47630   382.15901     -926.09426     -3104.8901      4358.183     
     47640   374.43793     -925.8828      -2999.5786      4357.7365    
     47650   405.87107     -926.75262     -2629.8231      4355.8742    
     47660   395.84765     -926.46809     -1839.493       4352.7754    
     47670   375.16441     -925.88307     -982.44794      4348.7964    
     47680   377.3435      -925.91941     -224.3095       4344.3342    
     47690   362.35515     -925.45661      721.50447      4339.7602    
     47700   368.89391     -925.56531      1787.3542      4335.5177    
     47710   378.70509     -925.73135      2651.4365      4332.0951    
     47720   368.23192     -925.30499      3254.5885      4329.901     
     47730   384.48576     -925.59205      3478.4657      4329.2168    
     47740   393.5269      -925.649        3408.5186      4330.1602    
     47750   390.94738     -925.37219      3042.2285      4332.7102    
     47760   427.44766     -926.17562      2161.4217      4336.6961    
     47770   426.66178     -925.95149      1010.5024      4341.728     
     47780   397.60741     -924.97751     -267.18769      4347.2773    
     47790   421.80617     -925.50334     -1619.0507      4352.7431    
     47800   431.27697     -925.63684     -2644.0549      4357.4978    
     47810   395.02703     -924.5305      -3266.5668      4361.049     
     47820   410.40165     -924.87875     -3806.3523      4363.0711    
     47830   430.20024     -925.36354     -3988.3539      4363.3079    
     47840   415.42671     -924.91221     -3668.6242      4361.6667    
     47850   399.71867     -924.45275     -2995.3664      4358.2832    
     47860   395.52075     -924.31732     -2032.9936      4353.469     
     47870   399.83844     -924.4159      -775.67282      4347.6795    
     47880   404.98476     -924.53424      608.21611      4341.5007    
     47890   401.43991     -924.40824      2117.9574      4335.5891    
     47900   412.10035     -924.67626      3533.0954      4330.6471    
     47910   435.01254     -925.29344      4512.6734      4327.3279    
     47920   442.14028     -925.49524      4896.3122      4326.0938    
     47930   447.17786     -925.67305      4705.3083      4327.1371    
     47940   433.38116     -925.35931      4054.567       4330.3928    
     47950   425.73458     -925.23819      2789.0109      4335.5678    
     47960   425.24714     -925.32962      1088.7937      4342.0945    
     47970   407.94069     -924.9577      -799.47227      4349.1934    
     47980   394.56963     -924.68793     -2592.5162      4355.9843    
     47990   393.86187     -924.76211     -4027.869       4361.6139    
     48000   396.06409     -924.914       -4821.1908      4365.3967    
     48010   399.1405      -925.09458     -5081.4399      4366.928     
     48020   386.38665     -924.83734     -4826.5786      4366.0627    
     48030   387.02251     -924.94772     -4099.8179      4362.9045    
     48040   415.51032     -925.83288     -2913.969       4357.7896    
     48050   409.02378     -925.75015     -1412.0039      4351.2724    
     48060   375.77728     -924.91196      194.9474       4344.0555    
     48070   395.10788     -925.51575      1741.3542      4336.8915    
     48080   417.62828     -926.20463      3276.8654      4330.5126    
     48090   385.18429     -925.36153      4723.2554      4325.6428    
     48100   408.17716     -926.05829      5347.2785      4322.9315    
     48110   424.75437     -926.59099      5290.3858      4322.6919    
     48120   388.28788     -925.65983      4766.5448      4324.9248    
     48130   384.71685     -925.63786      3584.1907      4329.398     
     48140   394.03739     -925.96505      2006.7912      4335.5923    
     48150   366.24483     -925.24251      346.11239      4342.7975    
     48160   373.96907     -925.48254     -1433.5788      4350.236     
     48170   390.9601      -925.96012     -3104.9022      4357.0717    
     48180   364.24969     -925.20946     -4331.3459      4362.5122    
     48190   361.70173     -925.11766     -5063.2286      4365.953     
     48200   385.72918     -925.75471     -5199.2159      4367.0256    
     48210   391.90638     -925.89488     -4691.5176      4365.6476    
     48220   407.26716     -926.29704     -3813.8655      4362.0316    
     48230   403.16681     -926.16525     -2474.1063      4356.5919    
     48240   393.00295     -925.86664     -890.69119      4349.9516    
     48250   410.88775     -926.34589      450.63252      4342.8373    
     48260   384.4917      -925.59345      1848.3087      4335.8985    
     48270   352.73664     -924.68201      3326.0715      4329.7968    
     48280   400.58789     -925.97227      4368.2539      4325.2053    
     48290   407.4901      -926.12846      5043.306       4322.625     
     48300   363.10654     -924.87172      5333.5246      4322.3851    
     48310   397.47415     -925.80613      4809.5102      4324.6217    
     48320   438.11303     -926.92222      3670.8893      4329.1232    
     48330   376.82451     -925.21802      2365.059       4335.4043    
     48340   372.7961      -925.09862      436.73806      4342.8469    
     48350   401.00852     -925.85437     -1586.8192      4350.5765    
     48360   376.60768     -925.13706     -3058.9796      4357.6608    
     48370   368.34939     -924.85842     -4261.3124      4363.3709    
     48380   405.79966     -925.84097     -5198.8344      4367.1097    
     48390   389.09964     -925.32055     -5289.3144      4368.4328    
     48400   386.54529     -925.20075     -4860.9839      4367.2565    
     48410   435.80278     -926.52323     -4200.3619      4363.7516    
     48420   411.31546     -925.80781     -2864.7939      4358.2445    
     48430   391.89817     -925.24139     -1334.2365      4351.3405    
     48440   415.18267     -925.85602      138.28945      4343.7498    
     48450   386.59783     -925.02109      2029.5158      4336.1958    
     48460   393.34487     -925.15955      3611.5572      4329.5364    
     48470   426.6201      -926.02996      4632.9242      4324.51      
     48480   383.62543     -924.78907      5428.9321      4321.62      
     48490   379.91085     -924.64511      5579.4705      4321.234     
     48500   424.42585     -925.83962      5005.1593      4323.4414    
     48510   386.04312     -924.73472      4165.2257      4328.025     
     48520   394.10795     -924.92122      2624.7252      4334.5994    
     48530   444.3551      -926.26542      582.13241      4342.4744    
     48540   401.55911     -925.02491     -1117.4402      4350.739     
     48550   374.06396     -924.20652     -2738.9137      4358.5735    
     48560   436.59915     -925.87338     -4509.4639      4365.181     
     48570   423.8634      -925.44953     -5533.5238      4369.7367    
     48580   392.0066      -924.51413     -5802.5802      4371.7178    
     48590   428.67452     -925.49084     -5632.9407      4370.9512    
     48600   433.11384     -925.58507     -4840.4626      4367.5026    
     48610   393.41995     -924.46802     -3512.7965      4361.7316    
     48620   418.83666     -925.16098     -2113.633       4354.2378    
     48630   419.77663     -925.16873     -296.80284      4345.7007    
     48640   379.24323     -924.01826      1828.3046      4336.9748    
     48650   393.84655     -924.38282      3667.5187      4329.0383    
     48660   425.33077     -925.20321      5186.2152      4322.7587    
     48670   411.34287     -924.76523      6376.1585      4318.8573    
     48680   426.50956     -925.15404      6707.4281      4317.8829    
     48690   459.15226     -926.05431      6228.4129      4320.021     
     48700   425.30002     -925.14469      5185.7923      4325.0951    
     48710   397.86854     -924.43283      3306.5273      4332.6438    
     48720   425.3603      -925.24919      805.78965      4341.8269    
     48730   419.71855     -925.14795     -1489.1546      4351.5206    
     48740   402.50983     -924.72906     -3445.8873      4360.6402    
     48750   404.28796     -924.84314     -5234.8416      4368.2256    
     48760   385.45594     -924.39056     -6473.9181      4373.4105    
     48770   393.68735     -924.69964     -7042.284       4375.5659    
     48780   418.839       -925.50395     -6703.092       4374.394     
     48790   398.87174     -925.07664     -5443.3107      4370.0314    
     48800   410.34919     -925.53311     -3921.8573      4363.0314    
     48810   424.63933     -926.08322     -2144.507       4354.1128    
     48820   377.21907     -924.90881      229.32687      4344.1359    
     48830   391.29781     -925.41502      2573.3056      4334.1969    
     48840   432.56806     -926.67791      4533.4528      4325.3891    
     48850   379.857       -925.3278       6245.0646      4318.6449    
     48860   378.53771     -925.38954      7099.1087      4314.744     
     48870   422.64499     -926.72942      7053.4106      4314.1024    
     48880   358.47296     -925.06371      6544.2754      4316.7503    
     48890   362.56099     -925.27542      5037.2668      4322.4591    
     48900   415.6199      -926.83906      2891.6343      4330.5842    
     48910   371.12892     -925.67643      718.72181      4340.1779    
     48920   358.10098     -925.35685     -1570.5737      4350.2261    
     48930   383.34637     -926.07079     -3742.3128      4359.6522    
     48940   362.80679     -925.49032     -5320.6503      4367.4249    
     48950   375.36556     -925.8171      -6486.1596      4372.7473    
     48960   398.15247     -926.42601     -6991.7258      4375.0356    
     48970   372.92132     -925.70666     -6541.2015      4374.0265    
     48980   396.89646     -926.3581      -5605.8456      4369.8855    
     48990   416.91072     -926.9001      -4176.1893      4363.0438    
     49000   357.62782     -925.23451     -2073.6693      4354.1862    
     49010   376.02033     -925.7052       43.496929      4344.2789    
     49020   418.6867      -926.81731      2115.8432      4334.3244    
     49030   362.97083     -925.17891      4374.3321      4325.3154    
     49040   363.005       -925.07515      6087.7395      4318.2801    
     49050   421.17868     -926.56013      7001.77        4314.0173    
     49060   385.84363     -925.44451      7410.7213      4312.9845    
     49070   368.76582     -924.85035      6854.427       4315.3769    
     49080   416.23253     -926.03052      5335.5979      4320.9733    
     49090   389.79934     -925.14133      3569.5346      4329.1397    
     49100   372.01469     -924.49101      1381.3928      4339.0733    
     49110   419.43217     -925.61948     -1214.7585      4349.7647    
     49120   422.96185     -925.50956     -3468.0367      4360.0197    
     49130   388.17453     -924.35854     -5065.9294      4368.7633    
     49140   439.98957     -925.63426     -6476.5523      4375.1754    
     49150   455.99398     -925.94708     -7231.1717      4378.5654    
     49160   401.02967     -924.34935     -7053.5299      4378.5473    
     49170   415.96529     -924.73241     -6495.9278      4375.1486    
     49180   441.13363     -925.42494     -5286.9543      4368.6307    
     49190   401.55443     -924.33886     -3196.9871      4359.5732    
     49200   392.26546     -924.08945     -756.36607      4348.948     
     49210   421.64113     -924.89975      1694.957       4337.9004    
     49220   407.52093     -924.49034      4261.4715      4327.6004    
     49230   429.21903     -925.07679      6244.5229      4319.2222    
     49240   445.72053     -925.53912      7561.7078      4313.6967    
     49250   403.45564     -924.39641      8125.6631      4311.6459    
     49260   403.02398     -924.43459      7409.3201      4313.3296    
     49270   423.31199     -925.06417      5910.5204      4318.4733    
     49280   388.88201     -924.1789       4232.7317      4326.4445    
     49290   391.19551     -924.30167      2137.9401      4336.4838    
     49300   442.57935     -925.77667     -411.45498      4347.6304    
     49310   433.51932     -925.57267     -2806.5755      4358.7136    
     49320   427.80569     -925.46632     -4929.9994      4368.5861    
     49330   441.66578     -925.91984     -6754.6719      4376.2048    
     49340   413.03291     -925.21393     -7838.3357      4380.6771    
     49350   402.96611     -925.04101     -8150.4023      4381.4437    
     49360   408.11995     -925.31082     -7703.6413      4378.3208    
     49370   381.65134     -924.70903     -6266.8066      4371.515     
     49380   371.11662     -924.53327     -4069.4316      4361.6969    
     49390   397.99425     -925.37337     -1413.89        4349.9063    
     49400   385.27609     -925.08583      1606.557       4337.4098    
     49410   367.19333     -924.61103      4513.3651      4325.6197    
     49420   413.19585     -925.89654      6730.381       4315.8754    
     49430   412.92089     -925.9024       8354.4156      4309.2161    
     49440   382.71629     -925.09253      9166.0231      4306.391     
     49450   407.72917     -925.83632      8756.4415      4307.7752    
     49460   418.10253     -926.19746      7370.6723      4313.2225    
     49470   391.06191     -925.53045      5351.9468      4322.1471    
     49480   404.36779     -925.9776       2699.4534      4333.648     
     49490   411.31475     -926.23188     -330.95524      4346.5205    
     49500   396.71703     -925.86668     -3366.0495      4359.3568    
     49510   393.12398     -925.78945     -6144.5142      4370.7053    
     49520   369.71015     -925.14971     -8105.7297      4379.2293    
     49530   370.27707     -925.17566     -9166.2231      4383.9477    
     49540   386.0721      -925.63729     -9336.6591      4384.3115    
     49550   365.98505     -925.11585     -8401.3357      4380.2261    
     49560   365.74159     -925.14626     -6579.1978      4372.1229    
     49570   387.1148      -925.76032     -4031.7293      4360.8764    
     49580   367.5171      -925.20181     -812.75366      4347.7174    
     49590   384.04952     -925.59942      2530.1536      4334.1646    
     49600   443.04437     -927.12664      5495.8663      4321.7794    
     49610   418.1677      -926.30303      7959.6078      4311.9421    
     49620   385.61827     -925.27216      9427.3021      4305.7663    
     49630   416.38064     -925.99631      9642.1356      4303.9137    
     49640   398.84749     -925.37382      8948.7558      4306.5088    
     49650   380.79712     -924.73913      7230.6069      4313.2453    
     49660   411.7392      -925.43695      4780.5781      4323.3723    
     49670   412.38377     -925.25729      2037.4047      4335.7966    
     49680   402.76567     -924.7802      -890.196        4349.2515    
     49690   416.03031     -924.92369     -3854.532       4362.3563    
     49700   405.0204      -924.39323     -6380.1518      4373.7034    
     49710   419.66498     -924.59759     -8296.9926      4382.0596    
     49720   435.17526     -924.86032     -9339.1331      4386.4858    
     49730   415.47692     -924.20064     -9261.6474      4386.4706    
     49740   405.92129     -923.87116     -8142.7587      4382.0428    
     49750   438.89893     -924.7507      -6257.7383      4373.7385    
     49760   430.75221     -924.50422     -3676.9141      4362.4851    
     49770   431.91805     -924.52486     -768.54101      4349.5221    
     49780   435.58189     -924.61         2339.774       4336.2467    
     49790   429.03283     -924.40903      5351.8308      4324.1169    
     49800   438.0522      -924.64883      7672.4256      4314.5076    
     49810   456.28341     -925.17892      8915.8655      4308.4599    
     49820   441.61319     -924.84564      9307.1579      4306.5409    
     49830   427.61212     -924.5783       8688.7256      4308.9108    
     49840   419.41702     -924.50269      7047.1931      4315.287     
     49850   415.72739     -924.56602      4638.5793      4324.9292    
     49860   399.78903     -924.2777       1949.2703      4336.7519    
     49870   408.4186      -924.64888     -1029.9583      4349.4954    
     49880   420.75874     -925.10365     -3913.1934      4361.766     
     49890   410.0222      -924.90645     -6251.9784      4372.1959    
     49900   392.31617     -924.50539     -7761.0146      4379.6636    
     49910   415.86338     -925.25626     -8674.0673      4383.4208    
     49920   417.82294     -925.4309      -8718.7392      4383.0426    
     49930   391.49957     -924.83044     -7627.9105      4378.5356    
     49940   410.66807     -925.49427     -5710.3515      4370.4387    
     49950   415.21033     -925.74639     -3251.4049      4359.6953    
     49960   391.78106     -925.19647     -543.3913       4347.4996    
     49970   406.2416      -925.66975      2153.2019      4335.1433    
     49980   404.9284      -925.68044      4921.5888      4323.9054    
     49990   400.6397      -925.59285      7136.7044      4315.0369    
     50000   421.9247      -926.22204      8247.9784      4309.5131    
Loop time of 16.9907 on 1 procs for 50000 steps with 216 atoms

Performance: 254.257 ns/day, 0.094 hours/ns, 2942.789 timesteps/s, 635.642 katom-step/s
98.8% CPU use with 1 MPI tasks x 1 OpenMP threads

MPI task timing breakdown:
Section |  min time  |  avg time  |  max time  |%varavg| %total
---------------------------------------------------------------
Pair    | 16.181     | 16.181     | 16.181     |   0.0 | 95.23
Neigh   | 0          | 0          | 0          |   0.0 |  0.00
Comm    | 0.20509    | 0.20509    | 0.20509    |   0.0 |  1.21
Output  | 0.062463   | 0.062463   | 0.062463   |   0.0 |  0.37
Modify  | 0.49041    | 0.49041    | 0.49041    |   0.0 |  2.89
Other   |            | 0.05175    |            |       |  0.30

Nlocal:            216 ave         216 max         216 min
Histogram: 1 0 0 0 0 0 0 0 0 0
Nghost:            950 ave         950 max         950 min
Histogram: 1 0 0 0 0 0 0 0 0 0
Neighs:              0 ave           0 max           0 min
Histogram: 1 0 0 0 0 0 0 0 0 0
FullNghs:         7344 ave        7344 max        7344 min
Histogram: 1 0 0 0 0 0 0 0 0 0

Total # of neighbors = 7344
Ave neighs/atom = 34
Neighbor list builds = 0
Dangerous builds = 0

# ---------- Average box dimensions ----------

variable sample_interval equal 100
variable nsamples equal ${first_run_step}/${sample_interval}
variable nsamples equal 50000/${sample_interval}
variable nsamples equal 50000/100

variable Lx equal lx
variable Ly equal ly
variable Lz equal lz

variable Etot equal pe
variable Ecoh equal c_eatoms/count(all)
variable Temp equal temp
variable Press equal press
variable Vol equal vol
variable natoms equal count(all)

fix avg all ave/time ${sample_interval} ${nsamples} ${first_run_step} v_Lx v_Ly v_Lz v_Etot v_Ecoh v_Temp v_Press v_Vol v_natoms file ../results/lattice_parameter/box_average_${temperature}.dat
fix avg all ave/time 100 ${nsamples} ${first_run_step} v_Lx v_Ly v_Lz v_Etot v_Ecoh v_Temp v_Press v_Vol v_natoms file ../results/lattice_parameter/box_average_${temperature}.dat
fix avg all ave/time 100 500 ${first_run_step} v_Lx v_Ly v_Lz v_Etot v_Ecoh v_Temp v_Press v_Vol v_natoms file ../results/lattice_parameter/box_average_${temperature}.dat
fix avg all ave/time 100 500 50000 v_Lx v_Ly v_Lz v_Etot v_Ecoh v_Temp v_Press v_Vol v_natoms file ../results/lattice_parameter/box_average_${temperature}.dat
fix avg all ave/time 100 500 50000 v_Lx v_Ly v_Lz v_Etot v_Ecoh v_Temp v_Press v_Vol v_natoms file ../results/lattice_parameter/box_average_400.dat

# ---------- Production ----------
run ${first_run_step}
run 50000
Per MPI rank memory allocation (min/avg/max) = 4.487 | 4.487 | 4.487 Mbytes
   Step          Temp          PotEng         Press          Volume    
     50000   421.9247      -926.22204      8247.9784      4309.5131    
     50010   394.88488     -925.52804      8539.5897      4307.8257    
     50020   348.34523     -924.293        8035.3141      4310.0815    
     50030   388.92988     -925.47502      6460.6495      4316.0136    
     50040   393.05783     -925.63472      4349.0898      4324.9106    
     50050   383.88514     -925.41059      1835.6526      4335.7881    
     50060   392.16924     -925.64792     -803.83818      4347.4767    
     50070   382.47903     -925.35995     -3224.5403      4358.7399    
     50080   408.86586     -926.05815     -5354.9198      4368.4235    
     50090   425.42578     -926.48633     -6899.4017      4375.5214    
     50100   388.26795     -925.44047     -7700.5064      4379.3074    
     50110   376.82023     -925.12144     -7875.8483      4379.4109    
     50120   412.63496     -926.1272      -7331.633       4375.784     
     50130   382.41049     -925.30751     -5691.2649      4368.7519    
     50140   359.99299     -924.69566     -3387.7272      4359.129     
     50150   405.37535     -925.94166     -925.95643      4348.0325    
     50160   399.83628     -925.74718      1756.544       4336.6614    
     50170   388.5961      -925.37883      4254.93        4326.2632    
     50180   404.5439      -925.75268      6267.2346      4317.9744    
     50190   403.13204     -925.6454       7554.1086      4312.6814    
     50200   385.59034     -925.10201      7863.6365      4310.9194    
     50210   393.12856     -925.26448      7318.9336      4312.7886    
     50220   393.28068     -925.22078      6172.8315      4318.0088    
     50230   399.50184     -925.33715      4429.7646      4326.0195    
     50240   414.57324     -925.67724      2163.1247      4335.9923    
     50250   416.88278     -925.6347      -327.03678      4346.8646    
     50260   418.02201     -925.53189     -2741.7806      4357.4673    
     50270   429.09089     -925.67892     -4881.0541      4366.6605    
     50280   406.67543     -924.88162     -6357.154       4373.453     
     50290   393.8131      -924.34582     -7229.4472      4377.1575    
     50300   406.88368     -924.51753     -7464.3701      4377.3964    
     50310   405.52817     -924.27978     -6763.0179      4374.1239    
     50320   409.94333     -924.20371     -5147.3297      4367.7382    
     50330   438.55678     -924.79517     -3034.2934      4359.0533    
     50340   425.79876     -924.24679     -562.34441      4349.1203    
     50350   426.14296     -924.08463      1875.2098      4339.1174    
     50360   473.03843     -925.23158      3968.4232      4330.1766    
     50370   483.57038     -925.41217      5664.5237      4323.2462    
     50380   438.96051     -924.12294      6794.1685      4319.0618    
     50390   424.8491      -923.72457      6908.7603      4318.0651    
     50400   444.88918     -924.30602      6150.0562      4320.2553    
     50410   442.55234     -924.29663      4754.3861      4325.2373    
     50420   422.23339     -923.80637      3027.7143      4332.3352    
     50430   419.71262     -923.81277      1112.5795      4340.7197    
     50440   424.65943     -924.02402     -807.53792      4349.485     
     50450   427.98442     -924.18893     -2625.8074      4357.7254    
     50460   441.7271      -924.65168     -4219.4283      4364.5926    
     50470   433.88218     -924.53092     -5246.7928      4369.3657    
     50480   424.98318     -924.3944      -5654.5848      4371.5948    
     50490   441.47771     -924.98135     -5652.0365      4371.1222    
     50500   443.38637     -925.18491     -5060.2499      4368.0153    
     50510   419.67829     -924.68478     -3806.4268      4362.6186    
     50520   405.7118      -924.43832     -2128.5753      4355.5722    
     50530   426.8314      -925.15159     -376.31181      4347.6942    
     50540   418.31715     -925.02741      1424.3346      4339.8311    
     50550   410.58292     -924.90787      3051.2235      4332.8132    
     50560   416.03718     -925.14248      4310.8422      4327.3678    
     50570   419.91577     -925.33213      5006.9446      4324.0284    
     50580   409.67784     -925.1312       5135.539       4323.0661    
     50590   408.39808     -925.18081      4697.0866      4324.4855    
     50600   396.87556     -924.94323      3827.5963      4328.0401    
     50610   388.41438     -924.77993      2601.2973      4333.2885    
     50620   401.13476     -925.19282      1136.3344      4339.6342    
     50630   405.31659     -925.35882     -351.15998      4346.3847    
     50640   404.56291     -925.38111     -1805.628       4352.8376    
     50650   401.54074     -925.33617     -3062.7043      4358.3215    
     50660   392.96926     -925.13294     -4033.8391      4362.2639    
     50670   406.15357     -925.535       -4470.4854      4364.2478    
     50680   416.4481      -925.86548     -4309.5723      4364.1116    
     50690   408.48569     -925.70043     -3889.3041      4361.9614    
     50700   401.86181     -925.57938     -3149.6928      4358.0462    
     50710   394.2019      -925.42933     -1873.2733      4352.7694    
     50720   384.97864     -925.22557     -408.02708      4346.7503    
     50730   410.06929     -925.96754      901.94702      4340.6792    
     50740   413.39876     -926.10715      2152.7126      4335.175     
     50750   380.3342      -925.23535      3147.0097      4330.7942    
     50760   376.11634     -925.15838      3670.4276      4327.9608    
     50770   380.27118     -925.30651      3785.8969      4326.8827    
     50780   383.98912     -925.43765      3574.2337      4327.5762    
     50790   381.61289     -925.39583      3056.5821      4329.9065    
     50800   364.86297     -924.9441       2402.0158      4333.6119    
     50810   391.34774     -925.67944      1406.3032      4338.3506    
     50820   422.06044     -926.52358      254.38575      4343.6502    
     50830   395.15439     -925.76763     -769.45948      4348.9774    
     50840   390.27824     -925.62054     -1868.9254      4353.8409    
     50850   426.63951     -926.61502     -2923.0677      4357.7376    
     50860   412.16895     -926.2052      -3522.8373      4360.2057    
     50870   385.42263     -925.4645      -3710.405       4360.9872    
     50880   388.34956     -925.54856     -3627.3941      4360.0203    
     50890   380.03924     -925.3143      -3136.5979      4357.3863    
     50900   380.28372     -925.30668     -2227.4891      4353.3527    
     50910   397.00086     -925.74051     -1080.7015      4348.3706    
     50920   389.33137     -925.48045      155.08959      4342.9939    
     50930   376.46633     -925.05928      1375.7019      4337.8043    
     50940   382.55957     -925.14185      2475.8986      4333.3621    
     50950   391.9357      -925.2918       3257.2555      4330.1528    
     50960   397.43656     -925.3182       3668.7006      4328.5109    
     50970   395.03906     -925.11589      3708.7834      4328.5955    
     50980   406.25706     -925.28614      3472.7209      4330.3994    
     50990   432.29124     -925.86409      2926.1131      4333.7826    
     51000   433.52875     -925.76254      1946.0995      4338.4627    
     51010   439.9494      -925.82441      554.66474      4343.965     
     51020   438.40281     -925.68331     -857.77707      4349.6449    
     51030   406.40838     -924.71612     -2071.0507      4354.8451    
     51040   387.40603     -924.11752     -3098.5724      4359.0001    
     51050   419.92194     -924.94964     -3919.4036      4361.6383    
     51060   403.79051     -924.43479     -4123.8053      4362.4147    
     51070   401.25667     -924.30981     -3806.8331      4361.2559    
     51080   423.11944     -924.86661     -3043.218       4358.3422    
     51090   409.57516     -924.44643     -1871.2157      4354.0653    
     51100   419.7848      -924.69239     -727.34435      4348.9835    
     51110   437.08079     -925.1417       360.97995      4343.649     
     51120   409.96629     -924.36894      1572.867       4338.5832    
     51130   406.37897     -924.25606      2704.683       4334.3392    
     51140   437.73291     -925.12131      3335.7812      4331.4083    
     51150   435.5126      -925.07562      3701.6022      4330.0743    
     51160   418.92586     -924.65568      3801.6746      4330.482     
     51170   438.33821     -925.26067      3354.9776      4332.6411    
     51180   447.82242     -925.62317      2469.2393      4336.3268    
     51190   437.2239      -925.46497      1278.975       4341.115     
     51200   416.58598     -925.05399     -200.56174      4346.4374    
     51210   386.84392     -924.39524     -1645.6383      4351.6074    
     51220   378.66909     -924.32485     -2830.7416      4355.9535    
     51230   401.36289     -925.11187     -3644.4232      4358.9286    
     51240   395.56364     -925.11107     -3755.9288      4360.1802    
     51250   381.81925     -924.87881     -3428.6331      4359.6622    
     51260   404.60091     -925.65264     -2928.2612      4357.5423    
     51270   413.04234     -926.02741     -2155.8719      4354.0836    
     51280   392.57046     -925.5866      -1090.1112      4349.6724    
     51290   388.83625     -925.58945     -107.28521      4344.806     
     51300   401.60698     -926.03304      853.14361      4339.957     
     51310   393.69688     -925.8887       1923.4473      4335.5801    
     51320   371.13621     -925.31652      2857.5573      4332.158     
     51330   394.15268     -925.99491      3278.342       4330.0961    
     51340   403.30747     -926.28329      3397.7077      4329.5827    
     51350   378.90701     -925.63535      3207.0969      4330.6552    
     51360   383.91328     -925.79542      2554.9086      4333.2017    
     51370   399.32052     -926.23689      1698.6642      4336.9155    
     51380   378.25416     -925.65725      790.01676      4341.3959    
     51390   389.17744     -925.95628     -467.61808      4346.1967    
     51400   402.74995     -926.321       -1719.4353      4350.7393    
     51410   358.28702     -925.06625     -2497.3954      4354.457     
     51420   365.94616     -925.24834     -3147.352       4356.9697    
     51430   394.61931     -926.00026     -3509.1768      4357.9862    
     51440   376.21806     -925.44118     -3140.1167      4357.3693    
     51450   376.17763     -925.3894      -2401.1325      4355.2933    
     51460   402.49086     -926.06074     -1653.988       4352.107     
     51470   399.17274     -925.90639     -723.3538       4348.1856    
     51480   393.56862     -925.68984      265.2622       4343.9696    
     51490   406.76693     -925.99463      1151.2954      4339.9201    
     51500   399.74027     -925.73782      1938.4135      4336.4522    
     51510   409.19844     -925.94409      2393.6355      4333.9164    
     51520   412.13268     -925.97599      2653.0711      4332.5211    
     51530   372.29438     -924.82616      2916.2455      4332.3877    
     51540   379.24919     -924.97334      2649.497       4333.6036    
     51550   412.00312     -925.82768      1902.2273      4336.0381    
     51560   390.29255     -925.16832      1172.102       4339.3564    
     51570   385.31786     -924.97448      335.95362      4343.2044    
     51580   401.94469     -925.37192     -631.78505      4347.1859    
     51590   393.34977     -925.06402     -1428.1028      4350.8579    
     51600   405.0925      -925.32025     -2028.9389      4353.8451    
     51610   426.54787     -925.84831     -2442.2974      4355.8663    
     51620   408.18712     -925.28155     -2577.421       4356.7361    
     51630   405.60437     -925.16411     -2449.4143      4356.3956    
     51640   419.04504     -925.49678     -2045.4508      4354.9146    
     51650   407.59541     -925.14457     -1449.3733      4352.4906    
     51660   412.0357      -925.23934     -902.57216      4349.4013    
     51670   422.6306      -925.51018     -282.23827      4345.9154    
     51680   393.63408     -924.68537      653.121        4342.3417    
     51690   394.21949     -924.68036      1419.8135      4339.0968    
     51700   408.17252     -925.03903      1897.966       4336.5342    
     51710   402.52556     -924.84917      2257.0794      4334.8799    
     51720   415.13976     -925.16352      2468.5671      4334.295     
     51730   415.14122     -925.12392      2449.5878      4334.8665    
     51740   403.60758     -924.75929      2306.5853      4336.5885    
     51750   437.21722     -925.64058      1652.0492      4339.3698    
     51760   444.38825     -925.7852       708.40635      4342.9109    
     51770   407.08259     -924.70457     -213.19917      4346.7796    
     51780   411.59369     -924.7876      -1192.3285      4350.5344    
     51790   422.45018     -925.04476     -1952.9254      4353.7253    
     51800   397.77098     -924.31854     -2382.4475      4355.9985    
     51810   409.33703     -924.60211     -2639.1416      4357.145     
     51820   423.25034     -924.95336     -2618.2475      4357.0518    
     51830   408.04295     -924.50467     -2233.2735      4355.7397    
     51840   425.09336     -924.96173     -1750.852       4353.3839    
     51850   428.41455     -925.04829     -1002.8417      4350.2287    
     51860   413.96907     -924.65442     -72.477556      4346.6283    
     51870   420.00804     -924.83874      796.63228      4343.0152    
     51880   431.22807     -925.17917      1486.5533      4339.7932    
     51890   425.95078     -925.08014      1983.3523      4337.2845    
     51900   404.25184     -924.53926      2297.6011      4335.7168    
     51910   403.36168     -924.58179      2414.7162      4335.2318    
     51920   432.50173     -925.47167      2284.5998      4335.8804    
     51930   427.05087     -925.42224      1986.86        4337.6012    
     51940   406.73557     -924.97261      1427.6727      4340.2478    
     51950   418.08622     -925.41031      543.7243       4343.5531    
     51960   413.39844     -925.41235     -428.04374      4347.1098    
     51970   384.78244     -924.74393     -1286.9197      4350.4682    
     51980   392.25886     -925.0683      -2106.8976      4353.2153    
     51990   387.73307     -925.05261     -2486.7355      4354.9833    
     52000   374.14208     -924.77175     -2475.5372      4355.5883    
     52010   396.1995      -925.47206     -2319.4816      4355.0275    
     52020   412.72738     -926.02007     -1925.701       4353.3843    
     52030   410.00447     -926.0379      -1299.436       4350.8494    
     52040   407.42986     -926.06383     -594.10897      4347.7159    
     52050   391.84333     -925.72501      173.95187      4344.3205    
     52060   389.96393     -925.75835      866.77999      4341.0198    
     52070   398.77726     -926.08346      1480.1414      4338.1396    
     52080   383.91877     -925.74584      2053.1395      4335.9683    
     52090   369.63832     -925.41123      2373.1466      4334.7637    
     52100   389.98737     -926.02946      2204.4631      4334.6618    
     52110   381.62751     -925.84288      1885.7399      4335.5972    
     52120   375.3735      -925.70504      1471.3499      4337.4204    
     52130   390.5976      -926.15498      874.19238      4339.9317    
     52140   373.77571     -925.70538      310.07937      4342.8606    
     52150   359.95657     -925.32368     -287.0688       4345.9384    
     52160   397.25346     -926.34647     -1068.6627      4348.8745    
     52170   394.8731      -926.25713     -1623.8174      4351.319     
     52180   370.30921     -925.54684     -1933.9558      4353.0078    
     52190   380.02343     -925.77672     -2168.4214      4353.7865    
     52200   385.53204     -925.87318     -2255.8708      4353.547     
     52210   395.55582     -926.08279     -1956.1299      4352.259     
     52220   393.05774     -925.93249     -1158.374       4350.0726    
     52230   383.90716     -925.58399     -244.15836      4347.3513    
     52240   405.91021     -926.08198      358.86232      4344.5106    
     52250   427.73782     -926.55719      751.78863      4341.8396    
     52260   393.1254      -925.46266      1271.4809      4339.5398    
     52270   382.40245     -925.02992      1623.4712      4337.8401    
     52280   399.63321     -925.35376      1715.1736      4336.9013    
     52290   381.07033     -924.6692       1720.6697      4336.7722    
     52300   381.92242     -924.51907      1676.0911      4337.458     
     52310   410.28762     -925.11844      1412.8267      4338.9287    
     52320   407.92868     -924.86712      1121.3625      4341.0727    
     52330   423.95165     -925.14693      644.31981      4343.7456    
     52340   439.51979     -925.43735     -32.526452      4346.7234    
     52350   414.04737     -924.62265     -741.74183      4349.694     
     52360   406.56371     -924.33498     -1399.3334      4352.3241    
     52370   440.76395     -925.22235     -1840.3005      4354.3068    
     52380   433.80874     -924.99094     -1849.3864      4355.4428    
     52390   421.91338     -924.64794     -1817.8571      4355.7085    
     52400   442.41502     -925.22412     -1904.3713      4355.1106    
     52410   436.67732     -925.09264     -1599.2175      4353.6317    
     52420   422.2089      -924.73444     -979.33918      4351.4128    
     52430   425.24104     -924.87187     -491.29883      4348.7288    
     52440   417.47223     -924.71506     -92.500406      4345.8139    
     52450   402.59825     -924.36276      425.85804      4342.8644    
     52460   386.79624     -923.97556      1143.1776      4340.1298    
     52470   399.69784     -924.3774       1742.8442      4337.9321    
     52480   409.94652     -924.70195      2111.4665      4336.5517    
     52490   418.89716     -924.99619      2199.7816      4336.1588    
     52500   418.04794     -925.02605      2134.3157      4336.8029    
     52510   418.35737     -925.09723      1949.1073      4338.4558    
     52520   427.66736     -925.4267       1528.596       4341.0295    
     52530   455.50053     -926.2908       643.3447       4344.3181    
     52540   438.98596     -925.94684     -346.54793      4347.9234    
     52550   397.92991     -924.92515     -1256.6649      4351.3834    
     52560   391.82813     -924.85961     -2043.9596      4354.2674    
     52570   410.05015     -925.46543     -2593.2138      4356.2018    
     52580   384.19408     -924.83749     -2748.0141      4356.9311    
     52590   387.73293     -925.01451     -2733.9207      4356.3656    
     52600   387.77128     -925.08318     -2328.9473      4354.5211    
     52610   383.75709     -925.02557     -1573.1812      4351.5864    
     52620   412.42868     -925.86863     -710.0203       4347.9094    
     52630   400.99808     -925.5957       283.71656      4343.9023    
     52640   374.98639     -924.90658      1231.6505      4340.0273    
     52650   414.24075     -926.0228       1865.4755      4336.7177    
     52660   410.46247     -925.94566      2519.3672      4334.2895    
     52670   367.24389     -924.76952      3032.6053      4333.043     
     52680   401.64287     -925.74177      2946.6952      4333.2013    
     52690   431.19697     -926.58296      2467.9674      4334.7377    
     52700   391.78334     -925.5163       1936.3267      4337.4492    
     52710   392.67007     -925.56759      1037.4269      4341.0744    
     52720   401.20957     -925.8253      -53.607214      4345.2032    
     52730   376.35118     -925.14646     -1009.6776      4349.3368    
     52740   391.95308     -925.58178     -1992.1517      4353.0122    
     52750   405.7588      -925.96176     -2696.4017      4355.7725    
     52760   385.48533     -925.39524     -2875.3138      4357.2879    
     52770   386.64533     -925.42188     -2803.2426      4357.4555    
     52780   391.39244     -925.54399     -2552.4459      4356.3012    
     52790   382.69639     -925.28718     -2104.5703      4353.9429    
     52800   398.89645     -925.71848     -1475.9198      4350.5885    
     52810   381.98591     -925.2231      -440.81003      4346.547     
     52820   380.98597     -925.16195      626.29513      4342.2898    
     52830   397.47214     -925.57516      1618.9198      4338.3186    
     52840   398.57683     -925.55577      2480.6138      4335.1       
     52850   416.83837     -926.0148       2969.2333      4333.0298    
     52860   434.61824     -926.47198      3115.5024      4332.3425    
     52870   399.22647     -925.46882      3017.4003      4333.1175    
     52880   384.47762     -925.04584      2478.1867      4335.3058    
     52890   401.13693     -925.48939      1559.9496      4338.6659    
     52900   406.12347     -925.60458      433.69387      4342.7789    
     52910   393.41366     -925.22589     -553.19963      4347.1332    
     52920   382.88005     -924.90149     -1301.7816      4351.2652    
     52930   382.59951     -924.84758     -1997.9106      4354.8102    
     52940   412.07017     -925.60383     -2734.9292      4357.4266    
     52950   427.26134     -925.95147     -3148.2869      4358.7729    
     52960   397.4285      -925.04358     -3029.0107      4358.6546    
     52970   391.49458     -924.78157     -2671.347       4357.1059    
     52980   410.13796     -925.15792     -2068.0336      4354.2929    
     52990   410.23897     -924.96545     -1055.4423      4350.5061    
     53000   416.59287     -924.90092      184.64021      4346.2162    
     53010   432.33075     -925.05856      1294.369       4341.9943    
     53020   430.29364     -924.71996      2156.949       4338.3615    
     53030   455.68491     -925.1674       2658.9197      4335.7211    
     53040   439.21861     -924.49436      2988.7972      4334.322     
     53050   417.87916     -923.74237      3005.5328      4334.3184    
     53060   444.9637      -924.36839      2621.9892      4335.7228    
     53070   450.97709     -924.44022      2082.772       4338.3761    
     53080   437.73736     -924.01544      1340.8416      4342.0323    
     53090   436.87364     -923.96134      310.98189      4346.3454    
     53100   440.94391     -924.06558     -830.00143      4350.8402    
     53110   433.01325     -923.85656     -1775.4431      4354.9902    
     53120   435.08457     -923.94529     -2525.7059      4358.3393    
     53130   435.31084     -924.00419     -3002.3544      4360.5247    
     53140   437.28258     -924.13392     -3148.6998      4361.3122    
     53150   450.70189     -924.6126      -2966.8985      4360.62      
     53160   439.325       -924.43048     -2372.8933      4358.5306    
     53170   450.02379     -924.88957     -1718.2603      4355.3019    
     53180   443.6451      -924.89932     -864.33351      4351.2492    
     53190   425.20957     -924.58246      84.39107       4346.7686    
     53200   416.60264     -924.53021      1021.2799      4342.3051    
     53210   417.98747     -924.74587      1830.4737      4338.2949    
     53220   404.51416     -924.52984      2560.6882      4335.127     
     53230   419.36163     -925.08713      2974.1419      4333.1373    
     53240   411.78802     -925.01344      3112.4474      4332.5322    
     53250   395.29331     -924.6753       2892.2276      4333.3821    
     53260   410.08945     -925.19358      2384.4303      4335.6005    
     53270   421.57954     -925.61588      1626.2204      4338.9628    
     53280   411.42453     -925.43477      657.62763      4343.1248    
     53290   395.58951     -925.08441     -354.49897      4347.6456    
     53300   411.36108     -925.60189     -1398.0287      4352.0462    
     53310   423.48247     -926.01911     -2266.9567      4355.8382    
     53320   395.83132     -925.33228     -2870.9771      4358.6027    
     53330   377.89033     -924.90442     -3247.5911      4360.0372    
     53340   395.94421     -925.46793     -3388.9719      4359.9467    
     53350   400.93774     -925.66756     -3072.847       4358.2606    
     53360   381.43253     -925.18219     -2337.7117      4355.1139    
     53370   388.14141     -925.41595     -1363.1237      4350.8382    
     53380   395.22036     -925.65098     -169.34227      4345.8898    
     53390   389.6401      -925.52499      1089.5278      4340.8253    
     53400   403.58771     -925.93664      2112.3467      4336.2255    
     53410   396.73438     -925.76865      3009.4473      4332.5837    
     53420   388.81263     -925.57002      3606.2384      4330.3212    
     53430   403.07156     -925.98864      3702.6784      4329.7225    
     53440   398.74089     -925.89488      3384.195       4330.8553    
     53450   391.32969     -925.71777      2635.7758      4333.5882    
     53460   400.35408     -925.99626      1590.7439      4337.5947    
     53470   390.39139     -925.74468      562.93427      4342.4132    
     53480   370.73425     -925.21463     -563.09713      4347.5617    
     53490   378.74508     -925.43838     -1830.3783      4352.508     
     53500   378.97282     -925.43047     -2858.1757      4356.6597    
     53510   379.82753     -925.42727     -3438.7604      4359.5218    
     53520   405.83689     -926.11447     -3602.4922      4360.7955    
     53530   394.27843     -925.75388     -3315.7871      4360.3841    
     53540   384.07753     -925.42762     -2855.6224      4358.392     
     53550   399.64149     -925.80414     -2245.1718      4355.0205    
     53560   407.76505     -925.95965     -1272.7445      4350.557     
     53570   390.40255     -925.39471      32.983043      4345.4539    
     53580   389.53234     -925.27033      1251.0549      4340.3064    
     53590   410.79832     -925.73617      2233.5813      4335.685     
     53600   399.08901     -925.26883      3183.3689      4332.0694    
     53610   405.0959      -925.2861       3838.2197      4329.9062    
     53620   430.09619     -925.82042      3985.6604      4329.5133    
     53630   413.57959     -925.20744      3648.7801      4330.9866    
     53640   402.37264     -924.75606      2779.2552      4334.1938    
     53650   418.17547     -925.05521      1525.72        4338.7574    
     53660   413.80051     -924.79551      354.12875      4344.1287    
     53670   399.63966     -924.2733      -811.19107      4349.7625    
     53680   419.01839     -924.68505     -2071.5706      4355.1017    
     53690   427.01581     -924.78684     -3057.049       4359.5538    
     53700   406.03232     -924.10229     -3596.4578      4362.6371    
     53710   417.67582     -924.34004     -3804.0338      4364.0624    
     53720   453.72132     -925.27182     -3759.5496      4363.6968    
     53730   429.04146     -924.5457      -3203.939       4361.5489    
     53740   417.46489     -924.20899     -2404.7009      4357.8445    
     53750   435.98115     -924.72061     -1274.0616      4352.9509    
     53760   442.86218     -924.92513      181.26815      4347.3931    
     53770   447.59804     -925.09112      1537.906       4341.8389    
     53780   453.554       -925.32075      2525.7729      4336.9199    
     53790   424.45079     -924.60161      3243.281       4333.119     
     53800   417.30822     -924.50892      3558.5036      4330.7813    
     53810   415.18139     -924.56947      3646.5435      4330.0873    
     53820   398.48883     -924.23246      3486.2769      4331.1052    
     53830   402.0552      -924.45775      2858.9223      4333.7815    
     53840   420.8396      -925.11214      1779.6133      4337.8521    
     53850   402.87222     -924.74572      688.25646      4342.8567    
     53860   393.5121      -924.6055      -516.34366      4348.2889    
     53870   409.68663     -925.16239     -1835.4201      4353.5827    
     53880   413.45681     -925.36866     -2904.5531      4358.1188    
     53890   409.36368     -925.34984     -3562.1889      4361.3732    
     53900   416.76296     -925.64778     -3804.1091      4363.0008    
     53910   410.34244     -925.55734     -3562.4858      4362.8567    
     53920   417.11582     -925.82869     -3115.3304      4361.0096    
     53930   428.15312     -926.2172      -2505.5967      4357.6423    
     53940   407.084       -925.71018     -1605.3879      4353.0275    
     53950   376.72405     -924.92487     -478.92227      4347.5724    
     53960   390.85276     -925.35393      686.91959      4341.7923    
     53970   389.42659     -925.33399      1890.245       4336.2381    
     53980   370.32716     -924.8084       3005.4901      4331.4786    
     53990   385.73697     -925.22826      3823.2399      4328.0453    
     54000   410.32274     -925.9002       4314.6118      4326.3468    
     54010   397.63914     -925.54346      4441.6108      4326.6492    
     54020   388.95682     -925.30441      3902.9963      4329.0402    
     54030   387.70243     -925.26842      2838.2876      4333.3206    
     54040   407.22142     -925.8048       1428.5936      4339.0379    
     54050   403.09178     -925.68076     -35.624416      4345.5702    
     54060   380.0338      -925.02491     -1454.2148      4352.2423    
     54070   401.5599      -925.59705     -2862.9151      4358.3735    
     54080   428.53205     -926.31816     -3949.7514      4363.2858    
     54090   414.41362     -925.91149     -4577.3235      4366.4298    
     54100   403.95188     -925.62094     -4838.6257      4367.4552    
     54110   413.57489     -925.90108     -4652.9768      4366.1914    
     54120   387.19756     -925.18909     -3825.2068      4362.6912    
     54130   373.72447     -924.83201     -2672.1121      4357.2951    
     54140   390.98765     -925.3158      -1346.0517      4350.5196    
     54150   385.62206     -925.15641      264.41949      4342.9829    
     54160   372.72715     -924.77057      2037.3031      4335.4359    
     54170   392.36619     -925.26913      3654.162       4328.7075    
     54180   398.67092     -925.38336      5029.7064      4323.5727    
     54190   398.01183     -925.30176      6011.7416      4320.703     
     54200   428.97823     -926.10327      6146.2301      4320.5839    
     54210   430.3466      -926.09751      5509.8001      4323.3421    
     54220   404.60428     -925.35601      4236.96        4328.7516    
     54230   414.1447      -925.59782      2276.9964      4336.2716    
     54240   407.53248     -925.38122      109.80958      4345.0475    
     54250   388.29768     -924.8017      -1974.9299      4354.0857    
     54260   398.5035      -925.02157     -3907.8862      4362.3894    
     54270   402.32422     -925.04844     -5312.8412      4369.0213    
     54280   404.40463     -925.0228      -6138.4136      4373.2583    
     54290   421.09693     -925.40549     -6466.04        4374.6398    
     54300   421.25658     -925.33889     -6118.478       4372.9548    
     54310   406.94277     -924.88274     -5072.7791      4368.3163    
     54320   412.28278     -924.97448     -3557.8289      4361.1711    
     54330   404.56429     -924.69405     -1543.0981      4352.2177    
     54340   396.82447     -924.39731      698.05852      4342.3887    
     54350   409.95447     -924.65812      2931.838       4332.7346    
     54360   417.28126     -924.74051      5069.8436      4324.315     
     54370   419.58985     -924.68219      6737.5335      4318.1374    
     54380   439.3834      -925.12289      7606.7469      4315.0023    
     54390   441.08768     -925.08929      7564.3531      4315.3602    
     54400   434.28267     -924.85559      6664.5151      4319.2577    
     54410   441.68476     -925.04413      4898.624       4326.3433    
     54420   444.5687      -925.12652      2570.197       4335.868     
     54430   418.19021     -924.40547      22.501516      4346.7963    
     54440   410.24264     -924.19227     -2604.461       4357.9448    
     54450   426.6349      -924.65081     -4969.8796      4368.0644    
     54460   429.24228     -924.73907     -6735.765       4375.9982    
     54470   418.41834     -924.48299     -7808.0091      4380.8421    
     54480   399.02027     -924.01794     -8028.3889      4382.0238    
     54490   405.94479     -924.3121      -7495.0066      4379.3723    
     54500   413.67474     -924.65708     -6215.0307      4373.0983    
     54510   407.29395     -924.62772     -4167.534       4363.788     
     54520   421.51585     -925.1781      -1480.1484      4352.4022    
     54530   431.73104     -925.6234       1501.5996      4340.2051    
     54540   417.1202      -925.37883      4285.3222      4328.5932    
     54550   418.7918      -925.58529      6475.3556      4318.8692    
     54560   411.33419     -925.54663      7986.047       4312.0669    
     54570   389.20416     -925.09705      8736.3723      4308.9085    
     54580   398.0938      -925.51009      8424.6869      4309.7625    
     54590   396.51052     -925.63184      7150.1277      4314.5378    
     54600   383.40617     -925.41746      5137.7268      4322.7056    
     54610   389.02286     -925.69343      2641.1804      4333.3875    
     54620   398.1484      -926.03533     -123.01282      4345.4549    
     54630   381.10756     -925.61386     -2943.8276      4357.6204    
     54640   372.11729     -925.38077     -5513.6113      4368.5391    
     54650   374.7528      -925.44655     -7445.959       4376.9624    
     54660   388.19903     -925.80866     -8528.9546      4381.9213    
     54670   385.70088     -925.73874     -8549.8317      4382.8577    
     54680   377.13242     -925.51235     -7723.3478      4379.7142    
     54690   401.40202     -926.20378     -6304.5975      4372.8567    
     54700   421.53076     -926.78427     -4198.0252      4362.9636    
     54710   379.68595     -925.6363      -1414.9037      4351.0483    
     54720   366.79087     -925.2654       1470.8135      4338.4188    
     54730   390.43797     -925.87593      4103.3576      4326.4309    
     54740   370.84526     -925.26115      6500.0186      4316.3262    
     54750   371.57962     -925.20109      8273.032       4309.2035    
     54760   404.1938      -926.02694      9184.9189      4305.8774    
     54770   398.76491     -925.81248      9182.302       4306.7822    
     54780   405.38657     -925.9575       7901.1301      4311.9248    
     54790   404.28466     -925.89728      5674.9377      4320.7636    
     54800   380.40115     -925.19832      2908.3789      4332.3139    
     54810   389.82861     -925.39784     -129.35383      4345.3148    
     54820   412.57467     -925.93229     -3066.9523      4358.3524    
     54830   387.23573     -925.10991     -5524.7195      4370.033     
     54840   391.44517     -925.10019     -7552.7276      4379.1483    
     54850   426.5148      -925.94458     -8872.4673      4384.7026    
     54860   398.73677     -925.06463     -9043.8572      4386.0536    
     54870   392.12265     -924.80069     -8420.7645      4383.0855    
     54880   410.14926     -925.22907     -7110.6226      4376.0936    
     54890   392.0696      -924.65284     -4731.8856      4365.7414    
     54900   396.11644     -924.67377     -1753.9229      4353.1673    
     54910   429.81165     -925.48158      1363.0503      4339.7896    
     54920   426.12197     -925.22568      4493.1241      4327.0896    
     54930   414.30606     -924.74113      7058.3913      4316.5076    
     54940   424.22797     -924.86772      8667.2297      4309.2026    
     54950   415.29519     -924.49113      9556.9776      4305.9144    
     54960   410.48327     -924.25847      9530.6122      4307.0359    
     54970   453.21666     -925.36991      8165.4726      4312.5391    
     54980   435.75226     -924.82858      5920.0504      4321.8319    
     54990   420.50563     -924.36181      3046.2584      4333.8977    
     55000   432.83953     -924.64347     -83.832284      4347.4211    
     55010   441.33439     -924.79825     -3179.6837      4360.9357    
     55020   423.30818     -924.20498     -5897.0566      4372.9734    
     55030   432.05612     -924.35645     -8107.5451      4382.2145    
     55040   431.3275      -924.2581      -9334.2063      4387.6006    
     55050   419.93883     -923.89423     -9456.9216      4388.5354    
     55060   419.55741     -923.86445     -8669.4816      4384.958     
     55070   430.71812     -924.17466     -6990.3413      4377.2701    
     55080   441.66047     -924.49074     -4452.6257      4366.3124    
     55090   431.21507     -924.21579     -1383.7998      4353.3219    
     55100   433.85841     -924.30018      1794.4006      4339.7666    
     55110   447.95106     -924.70438      4768.1892      4327.1423    
     55120   445.93417     -924.68253      7250.9874      4316.8193    
     55130   441.92098     -924.64494      8842.4627      4309.9057    
     55140   446.47653     -924.89996      9417.7702      4307.099     
     55150   443.36318     -925.00312      8925.2029      4308.6344    
     55160   411.6706      -924.34983      7537.2695      4314.2803    
     55170   398.71639     -924.2163       5262.6002      4323.3919    
     55180   410.04335     -924.74267      2425.2407      4334.9298    
     55190   409.14805     -924.90302     -488.84706      4347.5888    
     55200   406.3837      -924.97898     -3253.6136      4360.0012    
     55210   411.63936     -925.25241     -5729.2346      4370.8499    
     55220   409.94691     -925.32233     -7584.4919      4378.9563    
     55230   401.13086     -925.19388     -8648.9205      4383.434     
     55240   403.69719     -925.39243     -8906.4089      4383.7773    
     55250   387.03535     -925.06728     -8080.6114      4379.8976    
     55260   368.48223     -924.68084     -6219.4618      4372.2252    
     55270   392.20416     -925.45009     -3747.1323      4361.6745    
     55280   416.09097     -926.20606     -945.13714      4349.4515    
     55290   412.31471     -926.17568      2049.7462      4336.9053    
     55300   409.85939     -926.1666       4811.648       4325.4309    
     55310   397.94569     -925.8863       6983.8202      4316.2872    
     55320   389.04077     -925.68981      8276.464       4310.4378    
     55330   390.52206     -925.79339      8536.1695      4308.4345    
     55340   380.51265     -925.58882      7918.0804      4310.3721    
     55350   385.47104     -925.80674      6479.767       4315.9454    
     55360   374.44012     -925.57431      4478.7781      4324.4917    
     55370   363.30248     -925.31667      2035.1767      4335.0814    
     55380   374.26163     -925.64023     -608.11872      4346.5801    
     55390   381.40761     -925.82591     -3180.5209      4357.7482    
     55400   375.67995     -925.63041     -5308.5132      4367.3772    
     55410   371.61181     -925.46684     -6799.8998      4374.4565    
     55420   386.45961     -925.8232      -7654.6749      4378.2754    
     55430   410.13342     -926.43026     -7711.129       4378.4454    
     55440   404.2976      -926.23239     -6815.3053      4374.9728    
     55450   393.66207     -925.91079     -5145.9817      4368.3141    
     55460   409.18757     -926.31027     -3093.6465      4359.2858    
     55470   411.33846     -926.32596     -833.26023      4348.8899    
     55480   376.58175     -925.3017       1534.4808      4338.2112    
     55490   372.72433     -925.11239      3731.5319      4328.3546    
     55500   389.57174     -925.46997      5578.8045      4320.3267    
     55510   379.80737     -925.07261      6932.1088      4314.9554    
     55520   390.70642     -925.24558      7423.9842      4312.8186    
     55530   392.0636      -925.15017      7103.0251      4314.1171    
     55540   391.99483     -925.01752      6097.7911      4318.6861    
     55550   413.02917     -925.46543      4429.5738      4326.0487    
     55560   426.63283     -925.70012      2242.5978      4335.4281    
     55570   388.94663     -924.51272     -58.04708       4345.8163    
     55580   397.08715     -924.59629     -2289.3628      4356.1325    
     55590   439.64836     -925.62203     -4226.8306      4365.3253    
     55600   437.74058     -925.42869     -5661.9214      4372.4817    
     55610   434.79775     -925.24527     -6703.9321      4376.9117    
     55620   426.52092     -924.95189     -7094.1169      4378.1405    
     55630   413.25548     -924.55428     -6727.7831      4376.0066    
     55640   416.8864      -924.65002     -5690.143       4370.7104    
     55650   419.41112     -924.72935     -3960.6206      4362.785     
     55660   407.96879     -924.42368     -1711.3172      4353.0814    
     55670   418.14832     -924.71295      664.96176      4342.6742    
     55680   413.55421     -924.58514      2969.5741      4332.6852    
     55690   406.72016     -924.39043      5081.385       4324.1836    
     55700   425.13081     -924.90385      6601.6347      4318.1126    
     55710   415.50989     -924.65606      7300.8332      4315.1384    
     55720   416.71724     -924.73299      7140.8141      4315.5504    
     55730   422.14835     -924.94839      6280.3439      4319.2582    
     55740   419.97893     -924.97003      4747.6559      4325.8473    
     55750   411.01816     -924.80556      2704.5145      4334.6047    
     55760   425.27444     -925.2819       348.16642      4344.5772    
     55770   424.83031     -925.34378     -1893.77        4354.6726    
     55780   427.72934     -925.4959      -3970.7185      4363.8261    
     55790   429.37949     -925.61783     -5663.4588      4371.0588    
     55800   409.20354     -925.13948     -6730.4754      4375.5766    
     55810   392.24401     -924.75129     -7218.4906      4376.8759    
     55820   385.49683     -924.64383     -6909.9616      4374.7555    
     55830   391.5968      -924.88729     -5743.6962      4369.397     
     55840   403.02651     -925.27069     -3945.9648      4361.384     
     55850   398.79084     -925.20465     -1654.6863      4351.6024    
     55860   387.63        -924.92274      907.00693      4341.1548    
     55870   401.44591     -925.31055      3288.4524      4331.2367    
     55880   420.40181     -925.83185      5217.7097      4322.9429    
     55890   405.71665     -925.42314      6675.0697      4317.1492    
     55900   397.46491     -925.20321      7334.1082      4314.482     
     55910   408.39        -925.52847      7191.5403      4315.2173    
     55920   416.38635     -925.78888      6254.8945      4319.2637    
     55930   407.14856     -925.58166      4535.0332      4326.1724    
     55940   394.93056     -925.28846      2269.9266      4335.1437    
     55950   385.90974     -925.06621     -63.411988      4345.1332    
     55960   398.80265     -925.43194     -2260.2503      4355.047     
     55970   418.66017     -925.98131     -4241.8761      4363.8449    
     55980   405.26073     -925.60978     -5802.4959      4370.5928    
     55990   386.48771     -925.09585     -6786.3776      4374.5573    
     56000   385.60318     -925.08474     -7009.8853      4375.29      
     56010   395.51495     -925.38111     -6449.1081      4372.708     
     56020   386.82958     -925.16581     -5145.743       4367.1116    
     56030   371.50737     -924.75861     -3312.768       4359.1489    
     56040   392.26858     -925.33444     -1160.0483      4349.7137    
     56050   420.69458     -926.10443      1248.8757      4339.844     
     56060   413.39645     -925.87485      3622.0471      4330.6673    
     56070   403.51647     -925.57426      5438.8628      4323.2601    
     56080   410.71721     -925.75544      6419.5292      4318.4305    
     56090   402.00037     -925.50912      6705.8405      4316.6082    
     56100   386.70645     -925.09282      6365.7905      4317.8995    
     56110   401.11208     -925.50873      5281.3509      4322.1184    
     56120   401.74882     -925.5434       3656.8576      4328.757     
     56130   390.9641      -925.25594      1693.9925      4337.057     
     56140   393.56175     -925.32673     -320.97333      4346.1069    
     56150   397.51112     -925.41857     -2242.5949      4354.9605    
     56160   409.03673     -925.71064     -4051.8606      4362.7069    
     56170   398.3165      -925.38279     -5518.3349      4368.4964    
     56180   376.3373      -924.74398     -6330.1959      4371.6496    
     56190   384.98188     -924.95382     -6286.9901      4371.8029    
     56200   412.74206     -925.69102     -5471.9148      4368.9956    
     56210   414.36972     -925.70231     -4064.8731      4363.6403    
     56220   408.04022     -925.49243     -2369.9814      4356.4228    
     56230   412.0138      -925.56159     -537.66475      4348.1645    
     56240   404.05409     -925.28858      1326.9407      4339.7408    
     56250   401.00882     -925.14166      3034.5189      4332.0222    
     56260   407.39317     -925.24922      4360.2235      4325.785     
     56270   389.43793     -924.67707      5408.382       4321.6367    
     56280   418.18481     -925.40471      5825.1206      4320.0223    
     56290   427.74918     -925.6062       5626.5581      4321.1155    
     56300   402.17191     -924.8498       4748.1104      4324.8013    
     56310   390.34091     -924.48004      3400.1637      4330.6696    
     56320   405.15678     -924.84086      1688.1212      4338.0858    
     56330   404.6113      -924.76098     -98.243837      4346.257     
     56340   421.69083     -925.16246     -1859.7119      4354.3409    
     56350   434.9404      -925.45593     -3351.5505      4361.514     
     56360   424.53465     -925.10519     -4493.5041      4367.0716    
     56370   430.18842     -925.21893     -5393.6761      4370.4695    
     56380   435.73736     -925.35389     -5809.1442      4371.2984    
     56390   409.05206     -924.61916     -5426.2697      4369.3936    
     56400   400.82274     -924.4135      -4555.2516      4364.9446    
     56410   394.13302     -924.25169     -3089.9108      4358.4008    
     56420   407.03813     -924.62918     -1236.78        4350.4729    
     56430   421.03826     -925.03296      802.80524      4342.0483    
     56440   410.33475     -924.75106      2805.8296      4334.0833    
     56450   412.14721     -924.82069      4405.8752      4327.4954    
     56460   429.91036     -925.34905      5386.325       4323.0031    
     56470   421.9612      -925.18969      5852.2363      4321.0455    
     56480   426.34786     -925.4047       5629.7816      4321.8066    
     56490   425.59839     -925.51138      4806.5441      4325.1705    
     56500   395.13565     -924.81164      3515.6018      4330.7458    
     56510   390.8283      -924.83787      1888.1992      4337.9299    
     56520   406.96186     -925.43169     -27.47057       4345.9564    
     56530   401.50314     -925.42269     -1962.7072      4353.9318    
     56540   401.4232      -925.5577      -3701.5801      4360.947     
     56550   395.47411     -925.52699     -4939.3964      4366.1898    
     56560   383.8589      -925.33105     -5519.0485      4369.0823    
     56570   402.15098     -925.96585     -5607.1658      4369.3515    
     56580   398.08591     -925.98379     -5215.8461      4366.9736    
     56590   374.78259     -925.45723     -4250.0331      4362.1635    
     56600   378.39549     -925.65964     -2775.2022      4355.4017    
     56610   373.69768     -925.60772     -829.49004      4347.4108    
     56620   361.83794     -925.32462      1167.8464      4339.1078    
     56630   388.08964     -926.07526      2877.3058      4331.4195    
     56640   389.50987     -926.1211       4443.668       4325.1459    
     56650   384.04421     -925.96873      5638.4202      4320.9898    
     56660   410.20404     -926.69875      6028.7968      4319.465     
     56670   396.70556     -926.33766      5661.1526      4320.7347    
     56680   369.75602     -925.60662      4640.0016      4324.6151    
     56690   385.23423     -926.04569      3129.9787      4330.6257    
     56700   387.71364     -926.10916      1446.7938      4338.0707    
     56710   379.85632     -925.87051     -409.20772      4346.1554    
     56720   382.18995     -925.89793     -2235.7599      4354.0107    
     56730   358.26262     -925.17662     -3739.1609      4360.7844    
     56740   378.18937     -925.65721     -4970.6927      4365.7589    
     56750   406.55449     -926.36        -5655.8601      4368.3651    
     56760   364.91341     -925.12124     -5484.9229      4368.3036    
     56770   364.73362     -925.03497     -4861.4426      4365.6541    
     56780   404.60048     -926.04151     -3813.6366      4360.736     
     56790   388.19935     -925.47183     -2087.5704      4354.0846    
     56800   403.87234     -925.78592     -244.90382      4346.5113    
     56810   436.68594     -926.562        1480.4005      4338.8878    
     56820   387.25104     -925.05933      3208.4219      4332.0337    
     56830   392.19052     -925.07702      4395.2024      4326.7204    
     56840   436.18793     -926.17663      5119.1492      4323.4882    
     56850   400.79858     -925.09009      5604.868       4322.6678    
     56860   412.37478     -925.33636      5060.46        4324.429     
     56870   414.74171     -925.33912      3819.6532      4328.5212    
     56880   369.51245     -924.03186      2422.4098      4334.3802    
     56890   401.37851     -924.86381      751.49469      4341.3386    
     56900   428.64142     -925.56229     -844.6249       4348.6256    
     56910   402.91833     -924.80094     -2224.1149      4355.4923    
     56920   402.78029     -924.75952     -3522.2491      4361.2775    
     56930   421.94123     -925.26372     -4494.4316      4365.3756    
     56940   392.91872     -924.44175     -4797.9867      4367.3473    
     56950   404.7946      -924.76751     -4788.8963      4367.0389    
     56960   417.14101     -925.11533     -4284.6144      4364.4804    
     56970   413.20063     -925.02133     -3173.2817      4359.9356    
     56980   432.26032     -925.57355     -1694.4341      4353.9415    
     56990   444.55285     -925.94935     -84.802519      4347.204     
     57000   413.77146     -925.13537      1499.7494      4340.4868    
     57010   416.38473     -925.24967      2664.0244      4334.5142    
     57020   419.41563     -925.37955      3584.6677      4329.8332    
     57030   397.74474     -924.82651      4231.1615      4326.8588    
     57040   400.59828     -924.95726      4381.7276      4325.8674    
     57050   391.97165     -924.77056      4136.0896      4326.9202    
     57060   379.86544     -924.48258      3495.1858      4329.8908    
     57070   402.88364     -925.16538      2438.3337      4334.4718    
     57080   407.12891     -925.32474      1115.9386      4340.1705    
     57090   391.49466     -924.92793     -254.50482      4346.3726    
     57100   399.67485     -925.18582     -1565.9619      4352.4338    
     57110   415.44523     -925.65244     -2678.5102      4357.7397    
     57120   425.69996     -925.97606     -3542.6314      4361.7654    
     57130   416.79706     -925.78432     -4095.6743      4364.1064    
     57140   401.21492     -925.42052     -4242.3176      4364.5092    
     57150   400.40771     -925.47475     -3893.6212      4362.9196    
     57160   405.38275     -925.69826     -3222.0607      4359.5082    
     57170   384.54608     -925.20528     -2264.9269      4354.6087    
     57180   389.93876     -925.43422     -1062.5755      4348.6861    
     57190   397.83002     -925.72791      435.23319      4342.3205    
     57200   379.42377     -925.28024      1999.386       4336.2141    
     57210   396.62249     -925.81527      3118.8196      4331.0741    
     57220   395.25565     -925.83506      3920.6955      4327.4223    
     57230   380.95378     -925.49607      4336.2676      4325.6168    
     57240   379.84989     -925.52356      4227.9093      4325.8311    
     57250   366.76692     -925.21247      3814.0397      4328.0155    
     57260   373.03398     -925.42818      2950.3598      4331.9615    
     57270   407.61995     -926.42397      1778.3192      4337.268     
     57280   398.65416     -926.20892      555.23942      4343.3948    
     57290   386.67328     -925.90555     -891.28299      4349.7573    
     57300   416.39166     -926.75904     -2525.8664      4355.6701    
     57310   389.10723     -926.03241     -3723.3771      4360.3872    
     57320   359.75484     -925.24635     -4446.407       4363.3403    
     57330   384.13379     -925.94857     -4733.2845      4364.1869    
     57340   378.91226     -925.82659     -4304.8294      4362.8139    
     57350   367.0668      -925.51369     -3398.4608      4359.4276    
     57360   410.17874     -926.7204      -2364.3012      4354.4577    
     57370   379.78171     -925.87734     -959.51546      4348.4222    
     57380   344.41915     -924.87966      473.82714      4341.9788    
     57390   395.85957     -926.26515      1676.0344      4335.7938    
     57400   396.01516     -926.20037      3003.0022      4330.4469    
     57410   358.97542     -925.09032      4127.5109      4326.5367    
     57420   395.11607     -925.99521      4527.3084      4324.5514    
     57430   391.61471     -925.77588      4600.3277      4324.6868    
     57440   379.73496     -925.32027      4241.9438      4326.9608    
     57450   415.95269     -926.18547      3253.5242      4331.1894    
     57460   393.03084     -925.39806      2075.2873      4336.9293    
     57470   394.71422     -925.29695      615.35298      4343.6199    
     57480   451.66963     -926.71697     -1048.0124      4350.576     
     57490   422.33195     -925.75002     -2498.4758      4357.0301    
     57500   385.78452     -924.61228     -3863.936       4362.2845    
     57510   412.01967     -925.22471     -4967.2497      4365.6965    
     57520   389.74797     -924.49732     -5225.4592      4366.7704    
     57530   374.05        -923.96785     -4776.1395      4365.3847    
     57540   410.83318     -924.89521     -3891.7125      4361.7561    
     57550   409.43394     -924.76197     -2457.4407      4356.3279    
     57560   416.27638     -924.86683     -730.76739      4349.7861    
     57570   442.54061     -925.51628      843.84962      4342.9393    
     57580   435.34837     -925.25407      2205.2293      4336.5305    
     57590   412.58371     -924.57878      3304.9897      4331.1926    
     57600   421.921       -924.80952      4050.4797      4327.4253    
     57610   418.53175     -924.70006      4585.638       4325.571     
     57620   421.15924     -924.77542      4704.9687      4325.8586    
     57630   433.02801     -925.12819      4171.7918      4328.3246    
     57640   421.27906     -924.84409      3183.776       4332.7241    
     57650   421.62969     -924.91062      1852.7335      4338.5948    
     57660   421.96927     -924.9859       302.69943      4345.3174    
     57670   419.67242     -924.99595     -1435.053       4352.1603    
     57680   415.80091     -924.97104     -3078.5062      4358.3113    
     57690   387.16235     -924.26286     -4234.6212      4363.005     
     57700   377.64006     -924.08053     -4730.1939      4365.6999    
     57710   421.37616     -925.38852     -4762.1735      4366.1544    
     57720   423.40018     -925.56173     -4314.6384      4364.3657    
     57730   416.49834     -925.50898     -3490.5747      4360.5553    
     57740   417.73628     -925.7007      -2308.5843      4355.1286    
     57750   402.2203      -925.43356     -787.19369      4348.661     
     57760   396.15763     -925.42335      788.95639      4341.8701    
     57770   394.10709     -925.51624      2143.9862      4335.4878    
     57780   378.53894     -925.21743      3286.4513      4330.148     
     57790   379.84103     -925.36742      4085.2295      4326.3699    
     57800   395.8054      -925.91502      4461.5039      4324.5097    
     57810   386.42645     -925.74931      4546.7411      4324.7389    
     57820   390.96994     -925.95983      4073.3194      4327.0749    
     57830   396.7656      -926.19615      3065.1585      4331.2928    
     57840   381.98654     -925.84488      1791.6383      4336.9307    
     57850   394.29993     -926.22869      262.7529       4343.3883    
     57860   386.5407      -926.03863     -1291.0864      4349.955     
     57870   349.29616     -925.00702     -2674.2735      4355.9033    
     57880   373.03859     -925.64884     -3950.5505      4360.5707    
     57890   398.52024     -926.32874     -4634.3834      4363.3734    
     57900   376.81158     -925.70067     -4477.9088      4364.0013    
     57910   387.4239      -925.97331     -3993.8645      4362.5138    
     57920   407.28985     -926.50439     -3246.7616      4359.1519    
     57930   387.2671      -925.93038     -2180.8529      4354.2875    
     57940   390.98196     -926.01474     -1013.5372      4348.4269    
     57950   387.66731     -925.89618      354.36916      4342.1358    
     57960   361.51615     -925.13217      1829.4123      4336.0593    
     57970   373.17422     -925.40372      3023.7157      4330.8709    
     57980   388.47362     -925.76324      3840.4882      4327.1172    
     57990   380.96771     -925.48648      4428.391       4325.1776    
     58000   392.25945     -925.73384      4492.3773      4325.3004    
     58010   392.07566     -925.66339      4019.2147      4327.5079    
     58020   389.14345     -925.51897      3053.6308      4331.5744    
     58030   410.81276     -926.0552       1806.7658      4337.0556    
     58040   425.12105     -926.38735      460.07413      4343.3726    
     58050   406.6416      -925.81659     -963.72495      4349.8901    
     58060   390.80794     -925.32241     -2442.2181      4355.935     
     58070   387.58391     -925.1736      -3757.2821      4360.8131    
     58080   381.69278     -924.94542     -4543.7003      4363.9153    
     58090   389.93071     -925.10723     -4758.252       4364.8714    
     58100   394.84064     -925.17544     -4354.3895      4363.5897    
     58110   398.17727     -925.20045     -3412.9064      4360.272     
     58120   412.55969     -925.53117     -2198.5966      4355.3686    
     58130   421.08797     -925.69971     -875.3511       4349.4626    
     58140   417.89307     -925.54869      416.42623      4343.1825    
     58150   387.50618     -924.64538      1730.0942      4337.1431    
     58160   388.52115     -924.6086       2944.3141      4331.9537    
     58170   423.97154     -925.52006      3825.5649      4328.165     
     58180   409.94528     -925.06208      4468.3757      4326.1838    
     58190   396.44717     -924.63025      4673.5852      4326.2909    
     58200   425.92771     -925.39619      4109.0725      4328.5569    
     58210   431.81846     -925.51331      3114.2713      4332.7293    
     58220   422.33383     -925.21588      1803.0024      4338.3434    
     58230   430.13048     -925.40586      157.55418      4344.7794    
     58240   416.08109     -924.99293     -1359.6289      4351.2829    
     58250   408.24548     -924.75607     -2729.2894      4357.1324    
     58260   420.17758     -925.07143     -3886.8724      4361.6797    
     58270   407.01717     -924.70032     -4471.1851      4364.3916    
     58280   374.23217     -923.79097     -4488.8766      4364.9938    
     58290   402.43508     -924.57523     -4200.7331      4363.4744    
     58300   425.94109     -925.23166     -3402.6168      4359.9927    
     58310   403.91093     -924.63155     -2097.8474      4354.9443    
     58320   424.47725     -925.22293     -747.56242      4348.9388    
     58330   428.06226     -925.35227      750.79115      4342.6306    
     58340   416.94517     -925.08797      2195.2141      4336.7193    
     58350   423.17171     -925.32178      3294.3153      4331.8674    
     58360   425.47509     -925.4702       3978.3506      4328.577     
     58370   407.23492     -925.0695       4329.9797      4327.1605    
     58380   402.95838     -925.07204      4174.8369      4327.7609    
     58390   401.02951     -925.14951      3593.9277      4330.302     
     58400   413.83458     -925.64514      2594.3803      4334.5061    
     58410   419.4642      -925.9528       1221.7184      4339.9033    
     58420   400.51306     -925.57803     -304.74378      4345.8566    
     58430   374.08356     -924.97749     -1796.592       4351.6509    
     58440   373.7816      -925.0791      -3096.7135      4356.5852    
     58450   371.01755     -925.09458     -3953.5355      4360.0534    
     58460   363.64364     -924.96369     -4146.6861      4361.6616    
     58470   383.65826     -925.58248     -3843.8941      4361.3158    
     58480   402.53335     -926.16533     -3121.6711      4359.1702    
     58490   414.81777     -926.56929     -2234.2321      4355.5685    
     58500   413.04788     -926.58967     -1278.1602      4350.9396    
     58510   393.59937     -926.12046     -298.75339      4345.7427    
     58520   375.19407     -925.66979      779.98312      4340.4484    
     58530   377.03103     -925.76636      1908.4133      4335.5634    
     58540   386.19785     -926.05388      2804.888       4331.6005    
     58550   389.33866     -926.16897      3412.7397      4328.97      
     58560   371.56734     -925.69794      3745.4691      4327.9469    
     58570   365.90382     -925.55297      3612.9409      4328.6689    
     58580   391.50511     -926.26651      2937.924       4331.0608    
     58590   385.35471     -926.08949      1983.9399      4334.8139    
     58600   361.86554     -925.41991      851.91645      4339.4803    
     58610   365.54893     -925.48437     -249.65297      4344.5331    
     58620   377.64404     -925.75674     -1240.249       4349.4561    
     58630   389.34389     -925.99596     -2195.2558      4353.7775    
     58640   397.22281     -926.11355     -2984.5499      4357.0504    
     58650   385.88675     -925.68764     -3338.0362      4358.9158    
     58660   390.9318      -925.70816     -3279.9541      4359.2103    
     58670   411.12815     -926.13645     -2913.9289      4357.9641    
     58680   399.25625     -925.66887     -2216.0781      4355.3657    
     58690   409.79886     -925.82415     -1473.7991      4351.7413    
     58700   413.48151     -925.78468     -518.65342      4347.4601    
     58710   384.39025     -924.83975      594.06635      4342.977     
     58720   400.45197     -925.14892      1489.1577      4338.801     
     58730   419.34303     -925.53072      2171.6212      4335.3508    
     58740   383.51565     -924.40501      2723.5856      4332.9448    
     58750   403.16465     -924.83241      2946.1805      4331.8219    
     58760   431.05461     -925.49195      3016.1803      4332.087     
     58770   401.33176     -924.57354      2831.9884      4333.7604    
     58780   406.74286     -924.65072      2076.5044      4336.7338    
     58790   420.29779     -924.96258      1074.5449      4340.6623    
     58800   397.32209     -924.27051      202.06421      4345.0883    
     58810   425.19654     -925.00017     -757.84453      4349.5864    
     58820   448.65795     -925.62034     -1671.3502      4353.7094    
     58830   420.01848     -924.81696     -2366.8757      4357.0343    
     58840   417.55059     -924.75587     -2939.1667      4359.2275    
     58850   441.30199     -925.43782     -3167.8821      4360.0322    
     58860   431.50434     -925.20695     -2953.2251      4359.3554    
     58870   430.59327     -925.24088     -2651.0202      4357.2909    
     58880   409.58159     -924.72538     -1962.7403      4354.0095    
     58890   378.48727     -923.91971     -901.96071      4349.8483    
     58900   404.19765     -924.67782      91.45042       4345.2967    
     58910   423.68035     -925.26049      1051.7528      4340.8298    
     58920   392.54923     -924.43469      2021.9851      4336.903     
     58930   407.13059     -924.87457      2569.4651      4333.9441    
     58940   421.87871     -925.32182      2937.6059      4332.2128    
     58950   405.58991     -924.9114       3180.5079      4331.8732    
     58960   426.01068     -925.52791      2982.6779      4333.0127    
     58970   429.86295     -925.69586      2481.3379      4335.5357    
     58980   405.16719     -925.07626      1674.1322      4339.1988    
     58990   418.69082     -925.51767      452.29535      4343.6105    
     59000   413.9691      -925.45238     -757.55585      4348.2104    
     59010   386.51823     -924.7475      -1767.4224      4352.4325    
     59020   394.47947     -925.01543     -2591.518       4355.8003    
     59030   398.93946     -925.17927     -3049.3039      4357.9356    
     59040   396.49971     -925.14791     -3085.9786      4358.6311    
     59050   421.65161     -925.88552     -2785.5985      4357.8791    
     59060   421.59166     -925.9337      -2271.2705      4355.8309    
     59070   383.33126     -924.9213      -1662.7437      4352.7395    
     59080   393.73677     -925.25343     -1091.6671      4348.8971    
     59090   392.51878     -925.25422     -176.32411      4344.6001    
     59100   368.98806     -924.6214       1112.5503      4340.2885    
     59110   393.27068     -925.30308      2101.9111      4336.5365    
     59120   406.75557     -925.67893      2744.4303      4333.8009    
     59130   404.38437     -925.61684      3156.9073      4332.3759    
     59140   429.41977     -926.32615      3147.1712      4332.4299    
     59150   420.77477     -926.11556      2786.1101      4333.9483    
     59160   389.86113     -925.29442      2026.1579      4336.7455    
     59170   398.50651     -925.56912      923.21938      4340.4559    
     59180   405.3113      -925.78978     -90.21445       4344.5727    
     59190   380.34284     -925.12292     -885.24415      4348.6218    
     59200   378.55458     -925.09079     -1808.9917      4352.2102    
     59210   372.42252     -924.92437     -2478.7939      4354.9242    
     59220   380.99092     -925.15378     -2725.3896      4356.4606    
     59230   416.54272     -926.12775     -2692.6652      4356.7077    
     59240   407.26182     -925.86023     -2364.01        4355.6986    
     59250   394.44789     -925.5003      -1876.692       4353.5983    
     59260   400.30701     -925.65779     -1294.7259      4350.6488    
     59270   396.45564     -925.54118     -572.62444      4347.1398    
     59280   403.87011     -925.73367      217.08105      4343.4167    
     59290   396.38612     -925.50813      1046.189       4339.8516    
     59300   367.52116     -924.67723      1986.3239      4336.8371    
     59310   407.52898     -925.74119      2514.6334      4334.7796    
     59320   430.28007     -926.30644      2757.7505      4333.9213    
     59330   397.99558     -925.34041      2712.4383      4334.3577    
     59340   400.54021     -925.33414      2210.378       4336.0441    
     59350   411.69542     -925.54771      1394.9251      4338.7346    
     59360   385.39836     -924.70709      565.90076      4342.0505    
     59370   391.26868     -924.74511     -399.28019      4345.5861    
     59380   407.02448     -925.03447     -1067.9649      4348.9064    
     59390   399.0885      -924.65695     -1308.069       4351.704     
     59400   423.67783     -925.18153     -1547.5107      4353.8528    
     59410   460.18768     -926.04022     -1882.7542      4355.2421    
     59420   428.60682     -925.03701     -1923.8606      4355.7451    
     59430   421.73207     -924.75248     -1908.8993      4355.3411    
     59440   422.52546     -924.69534     -1812.4585      4354.0526    
     59450   408.71767     -924.2467      -1494.2146      4351.9459    
     59460   410.87306     -924.24961     -1004.0481      4349.182     
     59470   420.68121     -924.47073     -261.98204      4346.0056    
     59480   407.968       -924.07182      815.52554      4342.7788    
     59490   436.29943     -924.82098      1689.5144      4339.9838    
     59500   461.09325     -925.4905       2138.5406      4338.0131    
     59510   440.85109     -924.94241      2364.5954      4337.0732    
     59520   429.35463     -924.66757      2232.4834      4337.2442    
     59530   402.33065     -923.9764       1877.0826      4338.4548    
     59540   402.6753      -924.0497       1265.0307      4340.5185    
     59550   435.68167     -925.04154      551.74442      4343.1441    
     59560   433.33893     -925.07427     -108.33654      4345.9961    
     59570   410.29954     -924.54877     -676.0063       4348.7625    
     59580   411.2496      -924.69828     -1160.5903      4351.1762    
     59590   427.20951     -925.27723     -1501.7704      4353.0184    
     59600   444.52206     -925.91946     -1783.186       4354.1318    
     59610   420.11777     -925.42328     -1874.6178      4354.4022    
     59620   390.2119      -924.76506     -1839.6469      4353.7971    
     59630   403.25283     -925.28722     -1741.2285      4352.3439    
     59640   397.54915     -925.279       -1337.8654      4350.1157    
     59650   368.36024     -924.59112     -715.72551      4347.3136    
     59660   381.59474     -925.05417     -104.75722      4344.2286    
     59670   396.237       -925.5384       728.12384      4341.1648    
     59680   399.30111     -925.68868      1607.7732      4338.5038    
     59690   417.30358     -926.25015      2132.6076      4336.6322    
     59700   412.65233     -926.1871       2246.2335      4335.778     
     59710   374.45638     -925.18444      2103.7902      4335.9834    
     59720   398.58969     -925.90323      1685.3289      4337.1612    
     59730   400.11045     -925.9887       1257.8251      4339.1124    
     59740   377.83757     -925.40527      747.02048      4341.6217    
     59750   393.90426     -925.87742     -4.9150601      4344.4343    
     59760   390.14314     -925.79051     -653.11348      4347.2081    
     59770   378.94331     -925.48817     -1085.6947      4349.6445    
     59780   407.71621     -926.29024     -1539.6001      4351.5337    
     59790   401.8954      -926.13241     -1897.9469      4352.677     
     59800   360.6223      -924.98603     -1976.5762      4352.9269    
     59810   382.72116     -925.59012     -1892.3922      4352.2532    
     59820   380.87897     -925.51455     -1460.6158      4350.7231    
     59830   380.20091     -925.46264     -964.40666      4348.5408    
     59840   390.16047     -925.69548     -474.4695       4345.949     
     59850   368.58433     -925.04075      239.62986      4343.1966    
     59860   387.97061     -925.50997      971.74184      4340.6103    
     59870   430.14353     -926.59717      1552.6703      4338.5228    
     59880   418.68052     -926.19821      2042.2052      4337.201     
     59890   400.92095     -925.63603      2206.3257      4336.8488    
     59900   415.68535     -925.97906      1882.0199      4337.5187    
     59910   398.38386     -925.42979      1432.4247      4339.0583    
     59920   392.89868     -925.20628      927.62373      4341.2469    
     59930   407.60721     -925.53103      176.73861      4343.8296    
     59940   377.16978     -924.58836     -460.01778      4346.4653    
     59950   375.3497      -924.42281     -887.85774      4348.8567    
     59960   418.26524     -925.46226     -1197.9499      4350.8035    
     59970   429.99908     -925.6054      -1405.7482      4352.1651    
     59980   405.0042      -924.72413     -1481.4862      4352.8566    
     59990   411.76158     -924.71864     -1601.6752      4352.8427    
     60000   425.83817     -924.90107     -1495.2262      4352.0912    
     60010   433.07377     -924.89622     -1089.3836      4350.667     
     60020   417.12367     -924.26425     -476.75089      4348.7686    
     60030   411.94855     -923.95424      117.25462      4346.6832    
     60040   448.25475     -924.81043      606.72032      4344.6875    
     60050   453.48307     -924.83121      1214.4617      4343.0218    
     60060   456.86907     -924.84583      1563.3101      4341.9465    
     60070   459.28604     -924.87596      1560.436       4341.6133    
     60080   444.01767     -924.45322      1278.2664      4342.0121    
     60090   432.20373     -924.15162      854.44231      4343.0047    
     60100   440.23708     -924.42008      436.01892      4344.3892    
     60110   415.18766     -923.78137      116.62261      4345.9687    
     60120   402.64107     -923.48778     -308.82647      4347.5818    
     60130   428.46695     -924.26085     -793.57452      4349.0285    
     60140   417.65034     -924.019       -891.73803      4350.1046    
     60150   426.25982     -924.32002     -831.42137      4350.7593    
     60160   446.92137     -924.96746     -862.0354       4351.0147    
     60170   424.18463     -924.41807     -812.65006      4350.8714    
     60180   442.89269     -925.02524     -769.44908      4350.3531    
     60190   470.93038     -925.91324     -619.75965      4349.4909    
     60200   422.83129     -924.69874     -291.19026      4348.3647    
     60210   404.76302     -924.30549     -118.2185       4347.1157    
     60220   429.08372     -925.08403      36.34141       4345.8335    
     60230   403.42385     -924.46747      416.84369      4344.6022    
     60240   411.48712     -924.77571      770.39306      4343.5887    
     60250   452.37902     -926.00433      829.57385      4342.9429    
     60260   410.4717      -924.94104      836.33293      4342.7016    
     60270   388.6423      -924.42384      616.52496      4342.8515    
     60280   415.28833     -925.24657      328.74855      4343.2919    
     60290   389.97115     -924.6201       193.50915      4343.8934    
     60300   379.21738     -924.3833       161.40355      4344.589     
     60310   414.11511     -925.4082       85.585177      4345.3547    
     60320   416.43521     -925.52922      26.414148      4346.159     
     60330   427.78936     -925.91154     -158.49505      4346.9666    
     60340   417.48919     -925.70422     -353.58921      4347.6962    
     60350   386.94152     -924.93362     -489.99282      4348.2603    
     60360   396.52585     -925.27115     -705.91338      4348.5889    
     60370   407.4918      -925.64556     -853.10607      4348.5901    
     60380   397.70242     -925.44304     -800.87182      4348.2037    
     60390   403.48182     -925.67271     -574.15201      4347.4577    
     60400   396.86831     -925.55808     -230.7562       4346.4603    
     60410   386.94369     -925.34448      58.989063      4345.3702    
     60420   423.05618     -926.41208      112.12593      4344.3146    
     60430   398.6256      -925.8055       331.25639      4343.3373    
     60440   358.57541     -924.75391      584.31159      4342.5343    
     60450   389.4375      -925.66072      545.43793      4342.0063    
     60460   379.15867     -925.41513      518.67235      4341.7473    
     60470   363.17095     -924.99773      484.52         4341.7399    
     60480   402.25308     -926.10022      409.64922      4341.9628    
     60490   392.69348     -925.84752      568.73862      4342.3923    
     60500   373.21873     -925.31366      646.74446      4343.0882    
     60510   419.04207     -926.5892       304.61498      4344.0679    
     60520   410.6649      -926.3621       16.329749      4345.1923    
     60530   383.72877     -925.62394     -226.4754       4346.3218    
     60540   410.54604     -926.37921     -536.02784      4347.3372    
     60550   393.72982     -925.9237      -818.11859      4348.0973    
     60560   361.54045     -925.03738     -1010.0965      4348.4747    
     60570   377.06651     -925.46382     -1122.1482      4348.3803    
     60580   366.80984     -925.15402     -903.4447       4347.777     
     60590   375.93181     -925.36092     -520.63667      4346.7657    
     60600   416.72646     -926.42164     -241.26888      4345.5195    
     60610   395.49941     -925.74172      105.69148      4344.1805    
     60620   387.82637     -925.42761      434.1711       4342.9086    
     60630   417.30127     -926.12127      604.81693      4341.8498    
     60640   391.77835     -925.27175      861.89376      4341.0957    
     60650   389.38371     -925.05927      959.55849      4340.7516    
     60660   407.51548     -925.39852      947.88802      4340.8618    
     60670   385.71176     -924.62294      1052.6485      4341.4286    
     60680   405.00836     -924.99061      927.76717      4342.4818    
     60690   453.00315     -926.14881      542.24794      4343.9581    
     60700   433.09614     -925.44561      180.32647      4345.6892    
     60710   416.68374     -924.87676     -342.7023       4347.4911    
     60720   405.58165     -924.47276     -742.94687      4349.1312    
     60730   401.28366     -924.26795     -1023.897       4350.4191    
     60740   425.11463     -924.8503      -1231.8639      4351.2239    
     60750   434.47783     -925.04446     -1327.1636      4351.4513    
     60760   407.97219     -924.26063     -1174.6407      4351.0682    
     60770   431.23761     -924.87452     -999.88981      4350.1377    
     60780   420.2275      -924.5484      -601.11217      4348.7584    
     60790   400.73809     -923.99756     -176.50235      4347.112     
     60800   438.72773     -925.0517       116.42498      4345.393     
     60810   437.56363     -925.03508      594.70768      4343.7561    
     60820   426.52047     -924.76529      1016.4669      4342.4141    
     60830   449.94124     -925.47727      1113.23        4341.5511    
     60840   427.71742     -924.95035      1170.2636      4341.2239    
     60850   391.03574     -924.0307       1057.8652      4341.4486    
     60860   415.80939     -924.82578      667.32427      4342.1629    
     60870   408.75987     -924.74716      434.08441      4343.2015    
     60880   401.80042     -924.67641      239.08771      4344.4458    
     60890   413.06892     -925.11956     -45.626999      4345.7985    
     60900   415.92016     -925.338       -389.19924      4347.1268    
     60910   419.70801     -925.5934      -694.34114      4348.2723    
     60920   416.88076     -925.67322     -893.01087      4349.0954    
     60930   398.10557     -925.30789     -1090.3612      4349.4974    
     60940   385.81256     -925.10461     -1180.2266      4349.3933    
     60950   394.7462      -925.47525     -1083.461       4348.7452    
     60960   384.15956     -925.28437     -713.57586      4347.6057    
     60970   396.0416      -925.69908     -340.82828      4346.1397    
     60980   403.62219     -925.98403      43.949913      4344.5267    
     60990   384.70289     -925.5173       438.61542      4342.9493    
     61000   406.94515     -926.18372      659.63999      4341.5832    
     61010   402.42698     -926.10074      894.06201      4340.5424    
     61020   377.67915     -925.4472       962.369        4339.9256    
     61030   376.04568     -925.42149      879.12928      4339.7635    
     61040   376.52359     -925.4406       840.93345      4340.0236    
     61050   366.78851     -925.16153      795.61429      4340.6843    
     61060   394.84342     -925.92186      552.88733      4341.714     
     61070   402.65499     -926.11546      321.46525      4343.0075    
     61080   386.20754     -925.63658      114.68406      4344.4557    
     61090   399.16445     -925.9726      -211.38968      4345.9537    
     61100   413.22422     -926.3399      -532.14687      4347.3536    
     61110   397.98317     -925.89805     -831.41063      4348.5055    
     61120   391.63308     -925.70615     -1192.3495      4349.2627    
     61130   379.87011     -925.35918     -1311.2853      4349.4702    
     61140   377.00634     -925.25191     -1180.9244      4349.0725    
     61150   386.00525     -925.46369     -925.3834       4348.1283    
     61160   390.48063     -925.54245     -558.43221      4346.7597    
     61170   390.96166     -925.50382     -82.319808      4345.1427    
     61180   416.24054     -926.15231      340.73736      4343.4944    
     61190   398.35227     -925.60356      752.52207      4342.0187    
     61200   380.64914     -925.06263      954.11046      4340.899     
     61210   401.69737     -925.5914       931.2727       4340.228     
     61220   397.31794     -925.40943      982.51616      4340.0073    
     61230   371.1685      -924.61997      1027.249       4340.2553    
     61240   402.52791     -925.41832      877.77562      4340.9838    
     61250   431.39622     -926.1379       717.7269       4342.1307    
     61260   409.78157     -925.46409      576.39878      4343.6224    
     61270   410.3202      -925.41421      156.93223      4345.3779    
     61280   424.07261     -925.73271     -374.85723      4347.2071    
     61290   407.86055     -925.22348     -806.76975      4348.8677    
     61300   407.04582     -925.14642     -1173.6387      4350.1521    
     61310   396.45448     -924.79337     -1388.5041      4350.8905    
     61320   400.14465     -924.83048     -1381.6827      4350.9862    
     61330   415.37122     -925.17628     -1273.5107      4350.4366    
     61340   407.36364     -924.86728     -947.53276      4349.3006    
     61350   404.8246      -924.69881     -554.58483      4347.7266    
     61360   420.22111     -925.00855     -167.00952      4345.8977    
     61370   411.13225     -924.61736      399.3486       4344.007     
     61380   416.18604     -924.60088      910.17775      4342.3113    
     61390   436.51162     -924.98457      1182.2895      4341.0428    
     61400   432.13288     -924.67203      1361.6755      4340.3362    
     61410   424.54828     -924.27536      1447.801       4340.2756    
     61420   441.36526     -924.56076      1371.6106      4340.897     
     61430   448.57777     -924.59055      1212.8287      4342.1685    
     61440   456.22572     -924.6593       916.17953      4344.0141    
     61450   469.03077     -924.90421      370.37596      4346.2889    
     61460   460.23898     -924.58946     -286.43561      4348.7426    
     61470   441.48004     -924.0368      -939.41098      4351.0679    
     61480   414.30929     -923.27481     -1515.09        4352.9592    
     61490   403.61869     -922.98004     -2010.7663      4354.1411    
     61500   427.86488     -923.66372     -2104.9459      4354.3909    
     61510   428.5548      -923.70791     -1644.6298      4353.6719    
     61520   436.47045     -923.97216     -1152.505       4352.179     
     61530   477.1191      -925.18268     -784.15038      4350.1394    
     61540   452.59817     -924.63248     -169.21378      4347.7469    
     61550   427.48288     -924.0969       456.8962       4345.2818    
     61560   454.96386     -925.05866      749.60538      4343.0234    
     61570   431.62862     -924.64351      1129.9795      4341.1309    
     61580   406.23047     -924.16478      1505.2153      4339.7769    
     61590   433.94592     -925.1585       1604.4588      4339.126     
     61600   421.28002     -925.02123      1603.2246      4339.235     
     61610   407.64553     -924.82162      1357.6058      4340.0971    
     61620   438.56755     -925.83867      825.55025      4341.5948    
     61630   411.28548     -925.21935      377.05372      4343.4965    
     61640   382.53505     -924.52329     -124.67158      4345.5847    
     61650   403.90227     -925.19471     -814.43004      4347.6151    
     61660   401.40799     -925.18937     -1295.7537      4349.2789    
     61670   391.6696      -924.97105     -1426.9167      4350.3529    
     61680   415.75178     -925.68809     -1469.2045      4350.7598    
     61690   402.17595     -925.36047     -1350.5557      4350.4837    
     61700   368.8145      -924.47479     -1069.5683      4349.5797    
     61710   391.4623      -925.13303     -786.60178      4348.1713    
     61720   411.04603     -925.70039     -343.02622      4346.4005    
     61730   413.4102      -925.79305      207.79011      4344.4743    
     61740   422.4759      -926.08153      704.67211      4342.6457    
     61750   410.11527     -925.78396      1128.8803      4341.15      
     61760   410.02501     -925.83407      1286.2234      4340.1794    
     61770   416.27037     -926.06965      1106.8741      4339.8052    
     61780   385.04057     -925.26796      900.41981      4339.9589    
     61790   362.22367     -924.6892       742.53593      4340.5459    
     61800   376.69096     -925.13113      576.12704      4341.4913    
     61810   390.70838     -925.54976      273.80568      4342.7119    
     61820   390.72164     -925.57418     -42.826793      4344.0721    
     61830   392.61835     -925.64637     -277.20433      4345.4273    
     61840   405.56257     -926.02472     -530.1789       4346.6604    
     61850   391.7533      -925.66063     -739.02596      4347.6558    
     61860   374.85892     -925.20622     -967.90958      4348.3094    
     61870   390.48538     -925.64621     -1112.2967      4348.515     
     61880   402.97854     -925.99423     -841.12181      4348.2176    
     61890   389.4571      -925.6178      -419.49343      4347.5326    
     61900   398.38124     -925.86187     -237.64763      4346.641     
     61910   414.07067     -926.29371     -158.64404      4345.6344    
     61920   385.71651     -925.50387      68.183462      4344.5617    
     61930   379.73789     -925.3302       261.66408      4343.52      
     61940   408.6444      -926.11717      312.69567      4342.5959    
     61950   395.41921     -925.72989      431.1143       4341.8249    
     61960   381.44896     -925.31918      566.07413      4341.2598    
     61970   381.95661     -925.29925      724.89249      4340.9663    
     61980   377.53592     -925.12639      803.69578      4341.0165    
     61990   390.70862     -925.42441      692.67489      4341.4455    
     62000   408.50365     -925.83366      495.61248      4342.2069    
     62010   394.76962     -925.35645      388.0008       4343.2188    
     62020   404.70503     -925.52869      88.209272      4344.4185    
     62030   414.36396     -925.68057     -231.3163       4345.6737    
     62040   407.46753     -925.3692      -363.21979      4346.8441    
     62050   415.93791     -925.48328     -649.01826      4347.8481    
     62060   400.99804     -924.94628     -807.60959      4348.5637    
     62070   384.3658      -924.36288     -810.83336      4348.9132    
     62080   421.88116     -925.27422     -758.78172      4348.8875    
     62090   450.08414     -925.92264     -545.87817      4348.5142    
     62100   424.70139     -925.10567     -251.12087      4347.8893    
     62110   418.3131      -924.83914     -183.37537      4347.1359    
     62120   412.3344      -924.59408     -198.0827       4346.292     
     62130   390.43953     -923.91309     -53.148793      4345.3611    
     62140   414.51352     -924.50917      86.833562      4344.4014    
     62150   426.78948     -924.77836      300.8619       4343.4834    
     62160   401.26208     -924.00776      688.03617      4342.7142    
     62170   430.35589     -924.76146      1029.9882      4342.2679    
     62180   465.28554     -925.68972      1223.9842      4342.3065    
     62190   439.48552     -924.96335      1178.7091      4342.9239    
     62200   427.86925     -924.65827      721.9863       4344.097     
     62210   441.20254     -925.06966      120.95192      4345.6257    
     62220   411.12437     -924.29492     -281.36217      4347.2456    
     62230   416.6821      -924.52648     -801.67605      4348.7487    
     62240   416.618       -924.62233     -1088.282       4349.9036    
     62250   390.87103     -924.01685     -1078.776       4350.5725    
     62260   426.15935     -925.12591     -1175.0969      4350.735     
     62270   441.91298     -925.73601     -1140.5902      4350.351     
     62280   394.5854      -924.61931     -828.41923      4349.4385    
     62290   400.46972     -924.98708     -681.09112      4348.1171    
     62300   415.22858     -925.61817     -414.53152      4346.4672    
     62310   398.108       -925.36021      70.249306      4344.6148    
     62320   404.11451     -925.72807      447.30597      4342.773     
     62330   392.01763     -925.57104      806.46658      4341.1246    
     62340   362.21992     -924.87623      1242.7263      4339.8481    
     62350   398.74634     -925.98975      1358.0449      4339.135     
     62360   421.63827     -926.71319      1309.2093      4339.056     
     62370   387.60866     -925.84195      1258.7439      4339.6056    
     62380   388.968       -925.93559      905.24323      4340.7539    
     62390   399.66555     -926.27728      393.40512      4342.3493    
     62400   360.56046     -925.21981      20.120308      4344.1709    
     62410   365.29252     -925.36109     -526.03105      4346.0284    
     62420   386.5872      -925.94546     -1113.3394      4347.6678    
     62430   370.06692     -925.46822     -1256.6386      4348.8293    
     62440   372.68297     -925.51237     -1155.0263      4349.4253    
     62450   400.36646     -926.24131     -1068.6545      4349.4844    
     62460   419.52336     -926.73295     -1044.0027      4349.0362    
     62470   395.06782     -926.0213      -894.20038      4348.0939    
     62480   368.78588     -925.25955     -621.1127       4346.7195    
     62490   380.07287     -925.52968     -266.64814      4345.0324    
     62500   401.81611     -926.07779      204.46629      4343.1984    
     62510   390.89876     -925.71441      745.05885      4341.4366    
     62520   376.0798      -925.239        1217.5379      4340.0006    
     62530   401.35806     -925.86829      1391.0926      4339.109     
     62540   402.97114     -925.83296      1370.1624      4338.862     
     62550   399.30857     -925.65423      1151.8916      4339.2595    
     62560   377.49907     -924.96931      934.09749      4340.2206    
     62570   384.23729     -925.06999      621.30166      4341.6482    
     62580   407.89482     -925.62684      282.36126      4343.407     
     62590   415.00017     -925.72049     -48.956554      4345.3453    
     62600   413.68607     -925.58659     -464.98772      4347.3052    
     62610   405.9945      -925.28309     -873.27591      4349.0926    
     62620   380.30193     -924.4824      -1159.4789      4350.5138    
     62630   400.19031     -924.94355     -1418.6597      4351.4173    
     62640   425.53175     -925.54877     -1433.7003      4351.6773    
     62650   408.8748      -924.99561     -1140.4383      4351.2761    
     62660   419.46631     -925.20949     -919.4196       4350.3201    
     62670   447.82541     -925.92532     -679.40319      4348.9085    
     62680   431.30164     -925.41496     -281.81917      4347.1533    
     62690   411.01468     -924.82003      21.931135      4345.2235    
     62700   410.88294     -924.79366      283.46935      4343.2626    
     62710   387.2994      -924.11653      748.96176      4341.407     
     62720   389.9575      -924.16362      1130.52        4339.8655    
     62730   413.45229     -924.78147      1455.1006      4338.8307    
     62740   410.33136     -924.65935      1659.4771      4338.4652    
     62750   411.58364     -924.66073      1615.5937      4338.8788    
     62760   440.42105     -925.43279      1312.1278      4340.0684    
     62770   434.43845     -925.25021      965.20802      4341.9217    
     62780   434.188       -925.24872      387.64387      4344.281     
     62790   427.96516     -925.10414     -243.24186      4346.8921    
     62800   407.86335     -924.5961      -728.11278      4349.4686    
     62810   418.60606     -924.96633     -1265.9509      4351.7666    
     62820   433.84012     -925.4954      -1795.6432      4353.5227    
     62830   404.48486     -924.81983     -2091.2481      4354.4786    
     62840   388.33144     -924.52578     -2163.5898      4354.4693    
     62850   404.99949     -925.15836     -2015.044       4353.4339    
     62860   401.80796     -925.25159     -1552.8825      4351.4226    
     62870   403.5248      -925.48276     -916.5614       4348.628     
     62880   410.16433     -925.85407     -240.71248      4345.3302    
     62890   378.38991     -925.14227      553.76714      4341.8462    
     62900   374.61529     -925.17841      1282.8564      4338.5432    
     62910   397.97493     -925.95226      1813.5943      4335.7663    
     62920   383.66617     -925.66744      2309.7332      4333.7899    
     62930   366.05506     -925.26814      2616.6025      4332.8616    
     62940   396.0369      -926.17758      2624.5487      4333.1477    
     62950   404.24769     -926.47844      2469.8312      4334.6915    
     62960   405.58393     -926.58899      1843.2499      4337.4381    
     62970   403.90544     -926.61712      776.07289      4341.1223    
     62980   372.96024     -925.82291     -298.91281      4345.2795    
     62990   362.96538     -925.59121     -1363.7906      4349.4048    
     63000   378.0685      -926.03824     -2262.6406      4352.9934    
     63010   375.40656     -925.9783      -2910.4476      4355.6001    
     63020   365.33588     -925.70043     -3161.765       4356.8943    
     63030   371.2805      -925.85481     -3068.7462      4356.717     
     63040   372.06705     -925.85111     -2631.1773      4355.0811    
     63050   384.59283     -926.16112     -2067.0346      4352.1547    
     63060   377.12115     -925.90249     -1282.0652      4348.1867    
     63070   356.75816     -925.27067     -189.85754      4343.5372    
     63080   375.35041     -925.69687      1015.5601      4338.7075    
     63090   407.13793     -926.46308      2234.5343      4334.2647    
     63100   385.34646     -925.73071      3400.2772      4330.7962    
     63110   394.64275     -925.86187      3931.5147      4328.8475    
     63120   433.94685     -926.81955      3827.4553      4328.7018    
     63130   409.70293     -926.02467      3518.9487      4330.3679    
     63140   394.14944     -925.49053      2727.9275      4333.7256    
     63150   409.16356     -925.80652      1385.2196      4338.434     
     63160   373.82689     -924.72183      20.710753      4343.9102    
     63170   364.44801     -924.35467     -1366.9128      4349.5137    
     63180   399.85194     -925.21189     -2537.5325      4354.5928    
     63190   406.78759     -925.27179     -3292.9864      4358.5808    
     63200   398.73241     -924.9286      -3800.651       4361.0807    
     63210   407.65657     -925.07115     -3978.1442      4361.8189    
     63220   406.02489     -924.93398     -3523.5444      4360.6929    
     63230   434.64114     -925.65485     -2813.3325      4357.8702    
     63240   437.55383     -925.68424     -1864.8721      4353.6676    
     63250   385.93033     -924.2197      -617.38773      4348.525     
     63260   386.9599      -924.2179       579.84308      4343.0103    
     63270   439.04982     -925.63064      1716.9726      4337.6906    
     63280   438.02374     -925.58207      2971.108       4333.1192    
     63290   425.22488     -925.22874      3831.9787      4329.8769    
     63300   434.12879     -925.49943      4000.4867      4328.3757    
     63310   398.34643     -924.54109      3867.1587      4328.7389    
     63320   400.23644     -924.63116      3329.5322      4330.9256    
     63330   425.68865     -925.37864      2361.3444      4334.7104    
     63340   402.55231     -924.77943      1150.4758      4339.6706    
     63350   389.31834     -924.4477      -163.95569      4345.2565    
     63360   414.56086     -925.17632     -1440.0667      4350.8564    
     63370   412.5579      -925.1473      -2508.6455      4355.8668    
     63380   389.02626     -924.51893     -3316.7588      4359.7662    
     63390   399.69141     -924.83615     -3950.1086      4362.1418    
     63400   421.85586     -925.47712     -4101.101       4362.6807    
     63410   413.40723     -925.278       -3607.7252      4361.2936    
     63420   417.38924     -925.43367     -2824.7019      4358.1785    
     63430   422.05476     -925.61595     -1835.9168      4353.6911    
     63440   412.00169     -925.39272     -628.05513      4348.2949    
     63450   416.96441     -925.58703      548.55891      4342.5463    
     63460   415.49702     -925.60397      1748.5363      4337.0067    
     63470   391.72779     -924.99753      2815.0655      4332.2386    
     63480   376.23357     -924.60983      3578.972       4328.745     
     63490   383.50176     -924.84185      3994.839       4326.895     
     63500   413.49116     -925.70212      4059.8407      4326.9007    
     63510   426.33947     -926.09746      3704.473       4328.8093    
     63520   395.01081     -925.27488      2868.8117      4332.4744    
     63530   377.40454     -924.82688      1616.4306      4337.5258    
     63540   390.89958     -925.2282       184.1606       4343.3995    
     63550   392.5515      -925.28732     -1172.3623      4349.4361    
     63560   399.44758     -925.48425     -2353.6776      4354.9938    
     63570   407.6128      -925.71409     -3245.1764      4359.5048    
     63580   405.8698      -925.67243     -3764.7241      4362.5314    
     63590   411.75947     -925.84985     -4071.7472      4363.7999    
     63600   419.35609     -926.08626     -4178.4829      4363.1439    
     63610   403.93106     -925.69601     -3797.0061      4360.5084    
     63620   369.48196     -924.77591     -2785.8124      4356.0691    
     63630   375.55843     -924.96612     -1498.0971      4350.2838    
     63640   407.92944     -925.87304     -82.515615      4343.7541    
     63650   395.14649     -925.51712      1608.5088      4337.1589    
     63660   388.68228     -925.33069      3065.8307      4331.2737    
     63670   391.86864     -925.40526      4107.3623      4326.7831    
     63680   392.21496     -925.39909      4676.6339      4324.1795    
     63690   396.75418     -925.51138      4735.8364      4323.7393    
     63700   405.70067     -925.75118      4329.8783      4325.5092    
     63710   399.79627     -925.58397      3525.0483      4329.3211    
     63720   393.13612     -925.39609      2375.2147      4334.821     
     63730   408.65366     -925.81883      872.60782      4341.4843    
     63740   413.84732     -925.95083     -780.51103      4348.6212    
     63750   391.65349     -925.31906     -2365.6237      4355.4592    
     63760   376.35395     -924.87046     -3746.7928      4361.2403    
     63770   383.19818     -925.02205     -4716.4589      4365.2994    
     63780   413.62496     -925.81557     -5161.8807      4367.1576    
     63790   422.02628     -925.99107     -4968.1779      4366.5875    
     63800   389.89484     -925.03567     -4171.2076      4363.667     
     63810   399.9834      -925.2326      -3200.3313      4358.7462    
     63820   419.84665     -925.66134     -1889.0767      4352.2926    
     63830   392.12521     -924.73617     -52.396353      4344.938     
     63840   384.29028     -924.33693      1802.933       4337.529     
     63850   422.28449     -925.17318      3400.9316      4330.9324    
     63860   429.83169     -925.14859      4747.5585      4325.9023    
     63870   428.8307      -924.91185      5599.2889      4323.0634    
     63880   451.56832     -925.3664       5676.326       4322.8121    
     63890   438.38114     -924.86446      5025.8699      4325.202     
     63900   414.0754      -924.09476      3733.6585      4329.9511    
     63910   422.61673     -924.25475      2116.9023      4336.4879    
     63920   435.95753     -924.55647      389.51882      4344.0753    
     63930   421.00049     -924.08301     -1364.6933      4351.9092    
     63940   425.50928     -924.16026     -3007.4063      4359.1602    
     63950   436.74243     -924.43577     -4231.9366      4365.0492    
     63960   434.07305     -924.34654     -5029.3115      4368.9749    
     63970   447.65103     -924.73966     -5496.3463      4370.5323    
     63980   428.12009     -924.24686     -5304.6027      4369.4976    
     63990   405.32292     -923.68473     -4470.2487      4365.9483    
     64000   426.86767     -924.36677     -3154.7445      4360.2723    
     64010   441.85604     -924.8848      -1442.8702      4353.0929    
     64020   436.16078     -924.84534      441.4036       4345.2174    
     64030   447.49217     -925.29918      2190.4006      4337.5268    
     64040   435.3267      -925.12142      3718.0513      4330.8446    
     64050   422.47555     -924.93426      4741.1236      4325.8749    
     64060   431.07215     -925.35702      5166.8474      4323.0946    
     64070   401.57291     -924.72539      5106.3635      4322.7133    
     64080   366.39025     -923.90845      4563.7578      4324.7123    
     64090   394.36236     -924.82177      3507.1823      4328.8506    
     64100   412.62956     -925.45663      2145.0867      4334.6565    
     64110   386.68119     -924.84399      741.70667      4341.5167    
     64120   412.22365     -925.64323     -905.52173      4348.765     
     64130   422.89854     -926.02489     -2432.2378      4355.6381    
     64140   386.77515     -925.09523     -3581.9377      4361.4157    
     64150   415.66461     -925.96561     -4624.5778      4365.5221    
     64160   420.83537     -926.18679     -5150.2534      4367.4648    
     64170   366.87599     -924.76467     -4976.3255      4366.9881    
     64180   374.85763     -925.05052     -4475.8614      4364.146     
     64190   407.76094     -926.02294     -3420.4878      4359.1838    
     64200   386.89332     -925.49509     -1721.0554      4352.61      
     64210   398.21426     -925.84956     -32.398515      4345.2047    
     64220   415.13925     -926.35459      1587.5256      4337.7679    
     64230   373.75692     -925.23035      3200.7374      4331.0701    
     64240   387.78323     -925.63535      4263.6885      4325.8419    
     64250   401.13087     -926.01891      4915.3616      4322.5887    
     64260   366.51335     -925.06982      5199.2278      4321.6208    
     64270   375.50211     -925.32739      4826.3415      4323.0637    
     64280   401.16312     -926.04281      3996.809       4326.7644    
     64290   373.66726     -925.27618      2949.8541      4332.3628    
     64300   382.11302     -925.49648      1319.4252      4339.3632    
     64310   406.39636     -926.13731     -604.20098      4347.021     
     64320   386.22943     -925.52881     -2230.8524      4354.4546    
     64330   410.61794     -926.14903     -3627.373       4360.8799    
     64340   424.77256     -926.48129     -4649.8611      4365.6262    
     64350   380.20429     -925.19002     -5057.3899      4368.2037    
     64360   396.47008     -925.5901      -5249.0786      4368.3836    
     64370   426.12264     -926.35639     -4996.046       4366.0755    
     64380   378.04121     -924.96562     -3857.0845      4361.4169    
     64390   366.74087     -924.58664     -2356.4313      4354.9259    
     64400   393.66237     -925.23187     -807.24635      4347.3064    
     64410   383.32964     -924.8035       1096.4753      4339.3117    
     64420   402.00593     -925.14775      3082.5496      4331.8298    
     64430   434.67825     -925.84597      4619.5318      4325.77      
     64440   416.36135     -925.1279       5533.5427      4321.8457    
     64450   396.46545     -924.38934      5815.0888      4320.4837    
     64460   412.07473     -924.64914      5577.1253      4321.8255    
     64470   435.53094     -925.13832      4777.4619      4325.7704    
     64480   444.57007     -925.25339      3463.3984      4331.9644    
     64490   434.66433     -924.87447      1774.3081      4339.8136    
     64500   431.3653      -924.70319     -174.28855      4348.5388    
     64510   434.993       -924.73832     -2222.9041      4357.2295    
     64520   432.18223     -924.61008     -4201.7141      4364.9114    
     64530   420.26844     -924.24651     -5655.608       4370.6472    
     64540   421.0552      -924.25629     -6399.8629      4373.7307    
     64550   425.25037     -924.38385     -6463.7092      4373.7883    
     64560   429.74396     -924.54659     -5797.0036      4370.7827    
     64570   414.14977     -924.17085     -4365.02        4365.0332    
     64580   409.46936     -924.10309     -2442.7783      4357.2173    
     64590   423.31665     -924.54777     -395.39325      4348.2432    
     64600   426.4601      -924.69577      1547.5372      4339.0782    
     64610   417.59603     -924.51202      3377.4208      4330.6398    
     64620   424.98014     -924.7837       5131.8263      4323.7871    
     64630   436.07372     -925.17616      6457.8158      4319.3213    
     64640   433.65766     -925.21829      6916.8909      4317.8405    
     64650   449.73183     -925.80897      6329.46        4319.5528    
     64660   428.11408     -925.37842      5086.043       4324.2142    
     64670   392.17474     -924.54179      3376.1487      4331.2676    
     64680   394.57554     -924.74207      1190.0696      4339.9252    
     64690   399.30533     -924.97784     -1091.0537      4349.1833    
     64700   391.97431     -924.84576     -3080.7689      4357.9791    
     64710   420.62558     -925.69613     -4720.8141      4365.357     
     64720   409.88303     -925.44785     -5691.4789      4370.5368    
     64730   389.86939     -924.93744     -6238.0273      4373.0272    
     64740   412.44083     -925.61169     -6433.1821      4372.5524    
     64750   397.71088     -925.25657     -5793.3941      4369.0368    
     64760   361.25943     -924.29001     -4226.731       4362.7943    
     64770   389.23294     -925.0945      -2230.4216      4354.5576    
     64780   413.53791     -925.77895      70.139449      4345.284     
     64790   416.27318     -925.85563      2374.7524      4336.0568    
     64800   427.82504     -926.17859      4253.7982      4327.9426    
     64810   415.05945     -925.8354       5570.674       4321.812     
     64820   396.24678     -925.33463      6240.5775      4318.2683    
     64830   399.25276     -925.4485       6238.1833      4317.6173    
     64840   399.30608     -925.48984      5629.2384      4319.8617    
     64850   383.62407     -925.09669      4421.802       4324.7249    
     64860   384.63575     -925.16051      2791.2725      4331.6633    
     64870   387.40274     -925.25814      991.71171      4339.9345    
     64880   399.32739     -925.59504     -962.09584      4348.6965    
     64890   406.8787      -925.80052     -2891.1284      4357.0328    
     64900   385.07759     -925.18434     -4504.4961      4364.0314    
     64910   382.97579     -925.11064     -5570.9321      4368.9209    
     64920   403.85185     -925.67537     -5961.0344      4371.1876    
     64930   398.79812     -925.52831     -5754.9541      4370.6337    
     64940   385.0457      -925.1465      -5064.646       4367.3527    
     64950   406.08433     -925.73109     -3897.9725      4361.6791    
     64960   414.17575     -925.95357     -2119.1778      4354.1856    
     64970   398.94874     -925.52384     -61.386871      4345.7129    
     64980   407.2488      -925.73919      1860.5634      4337.2236    
     64990   405.08221     -925.65702      3547.751       4329.6196    
     65000   387.48403     -925.14272      4948.7315      4323.686     
     65010   400.41264     -925.47624      5763.5935      4320.0553    
     65020   396.0306      -925.33189      5911.8579      4319.0993    
     65030   383.58869     -924.96783      5397.1571      4320.8852    
     65040   392.30459     -925.18725      4360.5107      4325.182     
     65050   395.13068     -925.23072      3059.747       4331.5261    
     65060   411.79558     -925.64414      1348.6922      4339.3104    
     65070   425.40178     -925.95775     -641.57821      4347.7412    
     65080   396.38787     -925.07927     -2416.9845      4355.9001    
     65090   383.04988     -924.62558     -3976.39        4362.9368    
     65100   421.15953     -925.58497     -5249.4034      4368.1022    
     65110   409.09583     -925.1463      -5765.1869      4370.8011    
     65120   395.80732     -924.68537     -5686.4367      4370.7728    
     65130   433.10718     -925.63127     -5186.4833      4368.047     
     65140   414.20837     -925.02178     -3908.5604      4362.8886    
     65150   407.10379     -924.74838     -2316.9607      4355.893     
     65160   439.60833     -925.56957     -619.91286      4347.8202    
     65170   423.99852     -925.05515      1320.9614      4339.4896    
     65180   394.62545     -924.16383      3134.4286      4331.7998    
     65190   415.07906     -924.65305      4539.9245      4325.5862    
     65200   420.88246     -924.73729      5581.9028      4321.5009    
     65210   403.01907     -924.17836      6058.7425      4320.0143    
     65220   424.16801     -924.71833      5675.52        4321.3298    
     65230   424.93768     -924.70525      4784.6441      4325.2882    
     65240   426.50467     -924.7303       3448.9715      4331.4818    
     65250   450.05058     -925.37962      1570.6793      4339.2862    
     65260   425.51108     -924.70659     -346.92355      4347.8483    
     65270   419.53563     -924.55908     -2175.0098      4356.2666    
     65280   436.67975     -925.06375     -3859.5487      4363.6701    
     65290   431.137       -924.96186     -5208.8559      4369.2567    
     65300   414.12324     -924.56807     -6121.3173      4372.3773    
     65310   409.20045     -924.53834     -6359.6789      4372.6006    
     65320   389.76789     -924.12448     -5656.7526      4369.827     
     65330   406.09112     -924.71708     -4328.709       4364.3878    
     65340   424.41056     -925.38401     -2634.6464      4356.9203    
     65350   414.10895     -925.26709     -652.66151      4348.2406    
     65360   416.36654     -925.50136      1427.2998      4339.291     
     65370   409.85975     -925.49212      3260.1165      4331.0382    
     65380   387.26977     -925.02164      4736.4961      4324.3337    
     65390   391.92645     -925.29263      5740.41        4319.85      
     65400   404.15789     -925.7699       6228.3065      4318.0423    
     65410   400.84655     -925.81366      6129.0876      4319.127     
     65420   404.53301     -926.04833      5256.6202      4323.0476    
     65430   397.64739     -925.98095      3668.8288      4329.4046    
     65440   372.25732     -925.37308      1586.3716      4337.471     
     65450   370.67004     -925.39148     -715.3383       4346.2828    
     65460   377.91832     -925.62185     -2771.7843      4354.7728    
     65470   389.26939     -925.94609     -4287.0027      4361.9719    
     65480   387.35692     -925.89266     -5258.3025      4367.1516    
     65490   385.27495     -925.83343     -5793.2241      4369.8386    
     65500   378.37834     -925.64029     -5778.9879      4369.7823    
     65510   392.18905     -926.02353     -5232.1265      4366.9934    
     65520   394.47678     -926.08741     -4072.5703      4361.7498    
     65530   371.82979     -925.45337     -2434.1199      4354.6129    
     65540   370.47711     -925.39387     -579.50579      4346.3641    
     65550   387.97727     -925.83509      1399.2807      4337.8867    
     65560   398.30275     -926.05951      3350.5065      4330.1095    
     65570   409.351       -926.29937      4884.3282      4323.9249    
     65580   414.56328     -926.38618      5690.2241      4320.0226    
     65590   375.369       -925.25259      5923.2484      4318.7732    
     65600   361.31783     -924.82155      5553.6297      4320.2717    
     65610   393.7811      -925.67271      4566.6851      4324.3412    
     65620   405.73448     -925.94584      3238.3288      4330.5345    
     65630   378.80285     -925.13532      1600.3202      4338.2358    
     65640   398.87094     -925.61783     -494.4737       4346.6685    
     65650   410.44932     -925.84571     -2396.5458      4354.8734    
     65660   386.75232     -925.09052     -3944.1513      4361.9497    
     65670   379.04373     -924.77566     -5170.4761      4367.1544    
     65680   410.71082     -925.54909     -5862.3182      4369.9065    
     65690   406.64448     -925.33343     -5605.7703      4369.8985    
     65700   407.31195     -925.26367     -4738.9694      4367.2459    
     65710   435.59119     -925.96708     -3603.1755      4362.362     
     65720   427.03794     -925.65852     -2163.7784      4355.8063    
     65730   416.02187     -925.29381     -601.57305      4348.2687    
     65740   411.45648     -925.11034      930.6992       4340.4901    
     65750   395.39918     -924.60432      2522.4108      4333.2       
     65760   385.7151      -924.26742      3933.2437      4327.1291    
     65770   397.62213     -924.51948      5002.7964      4322.9199    
     65780   412.38871     -924.84382      5714.3103      4321.0592    
     65790   426.84492     -925.16099      5605.761       4321.8445    
     65800   436.50266     -925.35099      4704.6715      4325.219     
     65810   421.11421     -924.84956      3443.8301      4330.78      
     65820   414.42267     -924.58275      1785.1723      4337.9335    
     65830   426.34846     -924.80788     -139.63487      4345.9061    
     65840   419.20556     -924.4729      -1808.4444      4353.8123    
     65850   420.6699      -924.34965     -3221.42        4360.8585    
     65860   448.29626     -924.92335     -4465.6875      4366.3644    
     65870   439.32648     -924.47026     -5142.3327      4369.7551    
     65880   450.74002     -924.59775     -5391.51        4370.7021    
     65890   458.72028     -924.64745     -5071.864       4369.1024    
     65900   438.19815     -923.94003     -4071.0786      4365.1282    
     65910   439.74653     -923.87256     -2736.3383      4359.258     
     65920   451.37148     -924.10169     -1232.1036      4352.1367    
     65930   446.67973     -923.89799      482.85688      4344.493     
     65940   438.85398     -923.62794      2179.5158      4337.1317    
     65950   438.20622     -923.57709      3560.2643      4330.8338    
     65960   419.27635     -923.03758      4622.1894      4326.2365    
     65970   426.1167      -923.23223      5286.7197      4323.8159    
     65980   469.19851     -924.46433      5478.2873      4323.8654    
     65990   474.88157     -924.7119       5001.764       4326.4531    
     66000   453.6325      -924.26464      3820.1472      4331.35      
     66010   453.15543     -924.43419      2070.7718      4338.0033    
     66020   446.65791     -924.46498      329.38819      4345.6164    
     66030   440.34888     -924.51532     -1409.7172      4353.3648    
     66040   439.20836     -924.7135      -3147.3638      4360.4215    
     66050   423.49943     -924.49541     -4476.0059      4365.9781    
     66060   420.78091     -924.61698     -5304.6557      4369.4041    
     66070   423.21229     -924.86682     -5584.8274      4370.3125    
     66080   406.75364     -924.57226     -5268.4292      4368.5839    
     66090   411.52993     -924.84778     -4435.4906      4364.3847    
     66100   424.71308     -925.34685     -3207.424       4358.1272    
     66110   400.38965     -924.78929     -1401.133       4350.4265    
     66120   379.21202     -924.28794      725.76574      4342.1431    
     66130   403.74022     -925.03097      2609.7315      4334.2621    
     66140   412.93352     -925.3394       4120.5205      4327.658     
     66150   395.2258      -924.89777      5239.8209      4323.0215    
     66160   413.67304     -925.46435      5731.8732      4320.8425    
     66170   433.55977     -926.08978      5705.9008      4321.3356    
     66180   408.97788     -925.49908      5108.8546      4324.471     
     66190   408.04424     -925.572        3699.6979      4329.9473    
     66200   430.484       -926.30133      1806.3074      4337.1136    
     66210   399.39732     -925.54373     -72.714185      4345.1005    
     66220   374.50966     -924.93912     -1967.3078      4353.0162    
     66230   390.64427     -925.45613     -3762.6738      4359.9652    
     66240   381.74308     -925.26734     -4921.4819      4365.1191    
     66250   368.79007     -924.957       -5410.8707      4367.9324    
     66260   391.66379     -925.63847     -5455.7539      4368.1728    
     66270   400.46314     -925.93368     -4933.3027      4365.8444    
     66280   377.77858     -925.35519     -3831.8834      4361.2211    
     66290   375.97365     -925.34638     -2393.5206      4354.8409    
     66300   395.82284     -925.92438     -723.22961      4347.404     
     66310   403.81335     -926.16238      1061.9981      4339.7085    
     66320   396.50644     -925.9695       2813.7408      4332.5924    
     66330   386.84789     -925.70477      4202.364       4326.8533    
     66340   402.70928     -926.1482       5057.8362      4323.1146    
     66350   400.07196     -926.08476      5342.5227      4321.7494    
     66360   369.17153     -925.24112      5063.0109      4322.868     
     66370   376.22724     -925.44662      4157.3372      4326.3175    
     66380   399.69229     -926.09745      2768.4716      4331.6683    
     66390   392.09632     -925.87572      1256.6662      4338.2767    
     66400   395.50746     -925.94969     -274.26229      4345.4324    
     66410   398.95444     -926.01201     -1844.2353      4352.4085    
     66420   377.32326     -925.3655      -3245.2158      4358.4722    
     66430   377.09204     -925.2993      -4428.4031      4362.9622    
     66440   381.08425     -925.33314     -5071.419       4365.3394    
     66450   365.43903     -924.80626     -4952.2429      4365.3236    
     66460   382.22334     -925.16041     -4248.8199      4362.9856    
     66470   406.2152      -925.68416     -3084.726       4358.6832    
     66480   413.66801     -925.72914     -1634.9383      4352.9855    
     66490   443.25248     -926.37865     -118.38299      4346.5888    
     66500   443.68619     -926.22241      1366.4422      4340.2151    
     66510   398.4162      -924.82045      2634.5748      4334.5541    
     66520   395.81697     -924.61743      3359.3578      4330.1726    
     66530   400.05336     -924.60254      3931.4391      4327.409     
     66540   398.53276     -924.43408      4512.0803      4326.5179    
     66550   431.9006      -925.24356      4412.0267      4327.718     
     66560   442.9824      -925.45259      3548.9487      4330.9403    
     66570   403.12872     -924.2748       2403.9014      4335.787     
     66580   406.42733     -924.30837      987.88756      4341.7093    
     66590   428.67648     -924.86811     -564.85582      4348.0397    
     66600   406.45651     -924.19925     -1900.5488      4354.059     
     66610   419.07195     -924.50606     -3008.8494      4359.1357    
     66620   447.51948     -925.26526     -3706.9187      4362.759     
     66630   428.52492     -924.73154     -3909.6957      4364.6147    
     66640   431.0632      -924.82156     -3985.5605      4364.6055    
     66650   440.27986     -925.1216      -3802.3056      4362.7236    
     66660   415.62755     -924.50391     -3053.5847      4359.0933    
     66670   399.93779     -924.14081     -1848.4627      4354.0899    
     66680   434.76666     -925.18876     -551.58529      4348.2867    
     66690   423.1399      -924.96109      865.60905      4342.3118    
     66700   401.59318     -924.46168      2169.7597      4336.8241    
     66710   434.36394     -925.48403      3040.7758      4332.4104    
     66720   429.33424     -925.48288      3725.8415      4329.4748    
     66730   384.23658     -924.37629      4002.2554      4328.3049    
     66740   389.57092     -924.66485      3653.2247      4328.9939    
     66750   410.92771     -925.4024       3108.7766      4331.3781    
     66760   408.29527     -925.47643      2362.6466      4335.1842    
     66770   407.60271     -925.60071      1270.073       4340.044     
     66780   398.64764     -925.4829       6.0486841      4345.4436    
     66790   392.6272      -925.42428     -1255.6818      4350.7904    
     66800   400.20051     -925.7236      -2432.9605      4355.4922    
     66810   387.83621     -925.44842     -3309.553       4359.0078    
     66820   391.11125     -925.58992     -3780.5966      4360.9373    
     66830   399.55867     -925.86394     -3726.7017      4361.0818    
     66840   394.38847     -925.75304     -3329.9195      4359.4805    
     66850   393.44243     -925.75186     -2674.6293      4356.3444    
     66860   409.98529     -926.23313     -1827.6671      4352.0016    
     66870   382.6394      -925.48988     -560.51982      4346.8849    
     66880   355.45868     -924.73543      707.44937      4341.5833    
     66890   378.39473     -925.35345      1654.4436      4336.681     
     66900   394.87765     -925.77905      2599.7844      4332.6291    
     66910   392.30198     -925.67223      3545.7472      4329.8565    
     66920   410.15694     -926.13666      3881.2283      4328.7562    
     66930   410.22267     -926.11517      3565.7342      4329.4588    
     66940   392.63041     -925.61177      2969.0015      4331.8103    
     66950   390.29393     -925.53233      2175.467       4335.5151    
     66960   393.83466     -925.61011      1164.558       4340.1876    
     66970   393.5229      -925.57416     -91.698709      4345.3411    
     66980   380.54747     -925.17762     -1264.0654      4350.3959    
     66990   386.34659     -925.29135     -2303.2866      4354.8009    
     67000   410.62497     -925.90956     -3100.3008      4358.077     
     67010   407.5726      -925.77042     -3490.8293      4359.867     
     67020   383.98193     -925.06669     -3522.737       4360.0032    
     67030   387.84429     -925.12381     -3229.605       4358.4905    
     67040   396.12162     -925.29483     -2479.0442      4355.5002    
     67050   402.72435     -925.41314     -1413.954       4351.4041    
     67060   399.97837     -925.26542     -179.56591      4346.7189    
     67070   418.65463     -925.70788      917.26759      4342.0213    
     67080   426.37317     -925.8461       1852.218       4337.8261    
     67090   407.76408     -925.26297      2590.4145      4334.559     
     67100   388.80464     -924.67448      3104.4364      4332.5494    
     67110   410.8851      -925.2242       3132.751       4332.0015    
     67120   411.22086     -925.167        2952.4792      4332.9246    
     67130   422.49499     -925.42009      2357.0161      4335.1999    
     67140   422.7899      -925.37379      1533.5926      4338.5428    
     67150   394.1555      -924.5302       659.68053      4342.5623    
     67160   382.72516     -924.15843     -229.91503      4346.8422    
     67170   424.89448     -925.26105     -1205.1079      4350.957     
     67180   428.0298      -925.27382     -1972.5581      4354.463     
     67190   397.42021     -924.35723     -2444.4092      4357.0092    
     67200   422.19333     -924.97916     -2753.0907      4358.3775    
     67210   433.39524     -925.22376     -2775.5373      4358.4439    
     67220   408.96858     -924.48859     -2459.9836      4357.2195    
     67230   429.73185     -925.01439     -1926.1378      4354.8669    
     67240   447.07881     -925.45076     -1097.4452      4351.6612    
     67250   425.72568     -924.8284      -116.51703      4348.0018    
     67260   428.47524     -924.89096      616.83         4344.3387    
     67270   425.48641     -924.80724      1293.8684      4341.0259    
     67280   410.94896     -924.41613      1882.3069      4338.3728    
     67290   419.27794     -924.67401      2160.79        4336.6331    
     67300   413.23897     -924.54808      2263.4482      4335.9287    
     67310   404.83536     -924.37089      2254.4955      4336.2946    
     67320   424.92162     -925.00168      1945.3686      4337.7032    
     67330   430.60897     -925.26013      1378.4614      4339.998     
     67340   398.08439     -924.47509      693.89177      4342.91      
     67350   407.15168     -924.85589     -217.79237      4346.1022    
     67360   407.22379     -924.99848     -909.72083      4349.1647    
     67370   402.47632     -925.0141      -1383.9369      4351.7716    
     67380   410.7658      -925.39932     -1750.5129      4353.7015    
     67390   407.82183     -925.47931     -1959.538       4354.7918    
     67400   404.56028     -925.54845     -1989.3247      4354.9563    
     67410   430.86776     -926.44526     -1886.7399      4354.1914    
     67420   422.81515     -926.39894     -1590.8898      4352.5626    
     67430   373.82686     -925.19634     -1180.1302      4350.2197    
     67440   373.10452     -925.30116     -779.22308      4347.3597    
     67450   394.81527     -926.01088     -136.25166      4344.1907    
     67460   363.48694     -925.22455      826.94449      4341.0244    
     67470   360.43499     -925.19503      1537.1209      4338.286     
     67480   392.40162     -926.12078      1839.5978      4336.2935    
     67490   386.54729     -925.98624      2100.964       4335.1952    
     67500   378.366       -925.77931      2115.827       4335.0889    
     67510   384.04778     -925.94851      1890.42        4335.9687    
     67520   375.77258     -925.71939      1563.2988      4337.7239    
     67530   386.14322     -925.99834      1024.2687      4340.1846    
     67540   398.18456     -926.31526      394.2443       4343.0954    
     67550   392.2982      -926.12981     -198.31903      4346.1626    
     67560   393.81466     -926.14645     -827.59551      4349.1014    
     67570   390.33803     -926.01879     -1430.3901      4351.6211    
     67580   386.88407     -925.88624     -1985.9348      4353.4421    
     67590   389.59348     -925.91776     -2325.7058      4354.3178    
     67600   393.01528     -925.96358     -2239.1944      4354.1079    
     67610   367.28394     -925.19166     -1737.6058      4352.8688    
     67620   377.93553     -925.41677     -1324.1908      4350.8285    
     67630   403.50888     -926.03594     -959.78174      4348.1944    
     67640   382.8878      -925.36043     -233.12357      4345.1668    
     67650   373.53438     -924.98864      577.15323      4342.0782    
     67660   395.43882     -925.46326      1251.8783      4339.3011    
     67670   394.4036      -925.28306      1870.5763      4337.1504    
     67680   386.20254     -924.89892      2366.6206      4335.9047    
     67690   436.77793     -926.13928      2407.9422      4335.7676    
     67700   438.67017     -926.03234      2270.5216      4336.7597    
     67710   399.31661     -924.81399      1888.5936      4338.8001    
     67720   404.33247     -924.84464      1074.4578      4341.6892    
     67730   427.77823     -925.39184      210.19141      4345.0539    
     67740   421.17201     -925.11986     -485.82524      4348.4921    
     67750   420.20233     -925.02494     -1097.9146      4351.6732    
     67760   433.13388     -925.33402     -1708.2208      4354.3068    
     67770   417.52901     -924.86984     -2213.9167      4356.1155    
     67780   409.86333     -924.64196     -2611.1739      4356.8678    
     67790   409.19336     -924.6186      -2622.3925      4356.3991    
     67800   383.68118     -923.90835     -2128.2839      4354.7242    
     67810   388.39584     -924.03368     -1429.849       4352.0786    
     67820   424.51526     -925.02862     -697.45488      4348.7967    
     67830   428.33381     -925.13589      265.08468      4345.2424    
     67840   413.296       -924.72928      1235.4399      4341.8633    
     67850   440.80257     -925.51608      1794.666       4339.0917    
     67860   435.63796     -925.41029      2206.6791      4337.1968    
     67870   430.00121     -925.3064       2336.7294      4336.351     
     67880   429.43278     -925.35513      2253.0236      4336.6068    
     67890   402.05418     -924.65997      2036.0792      4337.9171    
     67900   412.11124     -924.99973      1447.3617      4340.1582    
     67910   429.1075      -925.53389      635.82547      4343.0527    
     67920   396.23309     -924.68129     -109.79783      4346.2271    
     67930   387.81542     -924.49555     -857.17646      4349.3241    
     67940   420.86886     -925.45572     -1602.388       4351.9916    
     67950   407.4377      -925.12632     -2028.3042      4353.8964    
     67960   388.64513     -924.64553     -2161.8529      4354.8427    
     67970   405.24279     -925.14382     -2179.5315      4354.7669    
     67980   406.94547     -925.22832     -1845.0091      4353.6837    
     67990   402.04236     -925.12934     -1301.0424      4351.7558    
     68000   425.42766     -925.82062     -833.13348      4349.2358    
     68010   414.46022     -925.56635     -178.50148      4346.3643    
     68020   385.07286     -924.79934      619.78892      4343.4517    
     68030   403.01574     -925.3414       1130.8524      4340.8531    
     68040   415.17333     -925.72441      1532.9111      4338.8137    
     68050   396.03377     -925.24043      1941.9267      4337.5214    
     68060   417.48393     -925.88778      1972.7824      4337.1415    
     68070   420.69382     -926.04071      1752.6976      4337.6859    
     68080   376.78296     -924.88592      1481.449       4339.0535    
     68090   387.65691     -925.24498      913.9682       4341.0966    
     68100   414.02546     -926.03209      228.93502      4343.5529    
     68110   392.69993     -925.4977      -383.43886      4346.1055    
     68120   362.47807     -924.70686     -947.58598      4348.4639    
     68130   375.69718     -925.10883     -1423.3613      4350.3638    
     68140   385.43382     -925.40161     -1626.6246      4351.5941    
     68150   403.1624      -925.91269     -1713.5121      4352.0552    
     68160   412.17064     -926.18609     -1551.283       4351.7197    
     68170   396.52833     -925.78026     -1117.6397      4350.673     
     68180   411.82795     -926.24054     -807.49337      4349.1073    
     68190   408.00139     -926.18038     -517.4045       4347.1803    
     68200   370.3763      -925.18574     -114.06911      4345.0365    
     68210   373.75032     -925.32537      326.76824      4342.8656    
     68220   388.1961      -925.7696       761.91008      4340.8711    
     68230   371.43207     -925.34438      1229.3346      4339.2585    
     68240   384.51539     -925.74565      1507.1738      4338.2349    
     68250   405.05581     -926.35878      1545.7559      4337.9222    
     68260   383.00418     -925.79535      1527.0501      4338.343     
     68270   387.28815     -925.96796      1166.2996      4339.4684    
     68280   393.94843     -926.21067      601.07702      4341.1315    
     68290   366.38978     -925.50248      130.97111      4343.0757    
     68300   354.57057     -925.21845     -262.97639      4345.0769    
     68310   386.26297     -926.1306      -622.05358      4346.9464    
     68320   395.54752     -926.41386     -849.26968      4348.522     
     68330   394.25654     -926.40352     -1105.3049      4349.6904    
     68340   385.3183      -926.17952     -1314.7519      4350.3367    
     68350   368.98926     -925.74249     -1360.8275      4350.3703    
     68360   376.70443     -925.96114     -1313.3951      4349.7707    
     68370   382.94662     -926.12676     -1110.8245      4348.5656    
     68380   372.95815     -925.82866     -620.33849      4346.8635    
     68390   390.30512     -926.27768     -188.44795      4344.882     
     68400   383.06371     -926.03092      293.95266      4342.8345    
     68410   360.79133     -925.35487      789.1025       4340.9454    
     68420   380.69344     -925.83155      1106.413       4339.4378    
     68430   390.74265     -926.01374      1339.7608      4338.4623    
     68440   371.17165     -925.36255      1547.5961      4338.1283    
     68450   399.32112     -926.02469      1473.7526      4338.5163    
     68460   421.48249     -926.50684      1273.6577      4339.5962    
     68470   398.47818     -925.74199      968.44745      4341.2713    
     68480   392.62446     -925.46174      389.49627      4343.3881    
     68490   398.43129     -925.50229     -278.30635      4345.6787    
     68500   377.92555     -924.81115     -655.78259      4347.8456    
     68510   395.23958     -925.16894     -964.48191      4349.7001    
     68520   420.34499     -925.73718     -1286.1799      4351.0943    
     68530   405.58225     -925.20951     -1423.7816      4351.8869    
     68540   399.20786     -924.9294      -1423.2979      4352.0141    
     68550   425.01777     -925.55024     -1421.0582      4351.4719    
     68560   416.99914     -925.24361     -1157.5044      4350.279     
     68570   391.28849     -924.46197     -726.73909      4348.5578    
     68580   387.4211      -924.28961     -275.3739       4346.5094    
     68590   407.91494     -924.79015      230.33942      4344.3494    
     68600   421.89499     -925.11079      871.02434      4342.3221    
     68610   447.76844     -925.77664      1388.436       4340.7151    
     68620   443.87114     -925.6409       1735.1032      4339.7708    
     68630   420.69969     -924.99641      1693.0839      4339.6376    
     68640   416.76965     -924.90164      1327.0592      4340.2946    
     68650   412.43079     -924.806        902.34715      4341.5766    
     68660   390.6666      -924.22859      622.87762      4343.2938    
     68670   414.59383     -924.92213     -7.2991068      4345.2859    
     68680   426.81814     -925.29842     -555.68023      4347.2788    
     68690   413.75114     -924.98677     -854.12396      4349.0175    
     68700   407.56361     -924.87694     -1089.9741      4350.3551    
     68710   402.71414     -924.81308     -1322.5724      4351.178     
     68720   389.01613     -924.50705     -1439.6084      4351.3826    
     68730   399.00378     -924.86258     -1396.9597      4350.9171    
     68740   410.82715     -925.28046     -1050.3974      4349.8105    
     68750   407.16558     -925.28258     -458.24751      4348.2291    
     68760   428.12525     -925.99199     -46.031133      4346.4351    
     68770   430.50107     -926.22449      225.06883      4344.6265    
     68780   393.56351     -925.38732      538.18056      4342.9406    
     68790   394.4627      -925.61195      743.13863      4341.5151    
     68800   393.84297     -925.80356      931.95017      4340.4501    
     68810   374.62761     -925.46934      1157.1798      4339.8363    
     68820   371.8194      -925.56523      1144.926       4339.7644    
     68830   392.13086     -926.2837       883.74882      4340.2266    
     68840   385.84276     -926.24291      626.39645      4341.1109    
     68850   364.19838     -925.74447      309.02031      4342.2907    
     68860   352.88172     -925.4965      -40.199858      4343.618     
     68870   364.46858     -925.85356     -372.04516      4344.9292    
     68880   383.53147     -926.3979      -684.01321      4346.0673    
     68890   374.40057     -926.1456      -811.15126      4346.8931    
     68900   375.09995     -926.15475     -778.01074      4347.3459    
     68910   399.15396     -926.80517     -724.25264      4347.4357    
     68920   386.45397     -926.43194     -664.67679      4347.1896    
     68930   370.28234     -925.9597      -579.70212      4346.6362    
     68940   374.01577     -926.03037     -337.99482      4345.8231    
     68950   383.79779     -926.25984     -99.571268      4344.8565    
     68960   369.92292     -925.82423      104.40753      4343.8505    
     68970   385.0871      -926.18866      182.93008      4342.8953    
     68980   396.41681     -926.43968      332.31207      4342.0374    
     68990   371.76199     -925.69032      582.66557      4341.3488    
     69000   373.27681     -925.66341      685.0917       4340.9357    
     69010   386.04482     -925.93816      644.83154      4340.8453    
     69020   369.96881     -925.40537      671.13203      4341.069     
     69030   370.35498     -925.324        488.02096      4341.604     
     69040   392.49482     -925.8358       192.32267      4342.3693    
     69050   372.13188     -925.16248      126.89094      4343.2409    
     69060   376.57579     -925.17807      55.550122      4344.1755    
     69070   427.40878     -926.47425     -107.37049      4345.1367    
     69080   417.03493     -926.07962     -116.22513      4346.0613    
     69090   409.078       -925.77595     -274.01519      4346.9286    
     69100   418.75702     -925.97511     -493.46416      4347.6695    
     69110   402.75475     -925.47387     -596.84518      4348.1878    
     69120   389.77815     -925.06461     -717.71973      4348.4285    
     69130   410.37508     -925.59054     -940.74576      4348.33      
     69140   392.0944      -925.03898     -842.94763      4347.8066    
     69150   380.54139     -924.67645     -515.93538      4346.9001    
     69160   397.13273     -925.09043     -212.246        4345.7534    
     69170   388.778       -924.80729      145.95619      4344.5168    
     69180   404.95832     -925.20536      283.47707      4343.3451    
     69190   427.42372     -925.78117      495.47663      4342.3174    
     69200   407.33921     -925.18751      825.07923      4341.5346    
     69210   392.42851     -924.74481      1001.9109      4341.1422    
     69220   422.37301     -925.55094      870.45891      4341.214     
     69230   405.11692     -925.05161      877.82696      4341.7112    
     69240   394.44048     -924.74024      849.54274      4342.6271    
     69250   435.74003     -925.87599      533.81282      4343.9382    
     69260   435.89028     -925.88381      149.29979      4345.5068    
     69270   404.46565     -925.03149     -190.63715      4347.157     
     69280   410.78207     -925.23494     -652.59249      4348.7197    
     69290   415.41541     -925.39901     -1080.5399      4349.983     
     69300   392.82253     -924.81287     -1323.1464      4350.7497    
     69310   396.92007     -924.97053     -1451.3436      4350.9004    
     69320   397.95292     -925.04661     -1342.7548      4350.3783    
     69330   385.72214     -924.75526     -1015.4886      4349.2346    
     69340   401.6393      -925.25075     -679.38708      4347.6125    
     69350   398.57906     -925.22744     -115.24876      4345.6832    
     69360   399.42882     -925.32598      438.49943      4343.702     
     69370   415.04839     -925.85926      760.73737      4341.9208    
     69380   403.73161     -925.67927      987.94892      4340.4986    
     69390   386.13139     -925.35411      1256.0527      4339.5487    
     69400   396.47848     -925.8363       1340.2595      4339.1873    
     69410   391.88076     -925.93241      1216.6721      4339.4553    
     69420   384.96838     -925.97153      971.57475      4340.3003    
     69430   394.89203     -926.47856      639.41993      4341.6084    
     69440   373.90237     -926.10681      367.55251      4343.2327    
     69450   366.70184     -926.07605     -83.077823      4345.0351    
     69460   394.15929     -926.98284     -784.03639      4346.799     
     69470   362.86028     -926.23034     -1276.5591      4348.2147    
     69480   322.31016     -925.17561     -1505.0969      4349.0469    
     69490   361.29646     -926.2962      -1654.2524      4349.1757    
     69500   371.44692     -926.59372     -1496.3406      4348.5375    
     69510   334.71497     -925.56791     -928.6143       4347.2104    
     69520   371.28795     -926.55669     -456.95032      4345.4362    
     69530   401.80508     -927.35848      120.47748      4343.4484    
     69540   373.05289     -926.50929      730.94338      4341.517     
     69550   379.01356     -926.61965      963.94671      4339.9109    
     69560   379.5339      -926.56688      1102.3475      4338.7546    
     69570   355.91853     -925.83432      1318.4168      4338.1231    
     69580   376.1275      -926.30541      1310.4631      4338.1062    
     69590   385.59764     -926.46131      1141.2192      4338.708     
     69600   356.94388     -925.55287      926.57768      4339.8585    
     69610   381.89515     -926.12542      481.74662      4341.4499    
     69620   383.47708     -926.03379      88.755317      4343.2901    
     69630   363.54756     -925.34772     -197.91643      4345.1976    
     69640   396.29126     -926.12107     -690.439        4347.0213    
     69650   398.63624     -926.0485      -1040.284       4348.5445    
     69660   372.34792     -925.19721     -1159.6432      4349.6013    
     69670   386.90022     -925.48844     -1240.3196      4350.1222    
     69680   406.90796     -925.93367     -1220.3756      4350.0664    
     69690   385.70326     -925.24742     -974.45045      4349.446     
     69700   396.1291      -925.45209     -782.01204      4348.3584    
     69710   414.38988     -925.88012     -445.45671      4346.9007    
     69720   396.18824     -925.3075       109.88744      4345.234     
     69730   405.5172      -925.51013      422.20198      4343.5973    
     69740   413.21028     -925.67377      647.05589      4342.147     
     69750   394.81565     -925.12188      1006.5513      4341.0007    
     69760   399.84818     -925.22486      1234.4753      4340.3196    
     69770   419.0379      -925.72483      1157.1453      4340.2087    
     69780   397.56911     -925.10298      978.00555      4340.6488    
     69790   382.69838     -924.66686      695.12617      4341.5613    
     69800   402.22246     -925.18167      308.11886      4342.8157    
     69810   402.98689     -925.17268      101.80142      4344.2488    
     69820   409.54719     -925.32836     -109.20043      4345.7555    
     69830   416.71227     -925.50612     -343.48944      4347.2371    
     69840   406.03        -925.19531     -609.51531      4348.5818    
     69850   407.22512     -925.21934     -911.76167      4349.6602    
     69860   419.57991     -925.55894     -1076.0988      4350.3319    
     69870   410.04232     -925.29864     -1027.0878      4350.5169    
     69880   407.21334     -925.23266     -1112.8679      4350.2127    
     69890   405.41259     -925.20083     -1094.5896      4349.3823    
     69900   389.21594     -924.77073     -671.11288      4348.039     
     69910   398.67791     -925.05124     -189.70029      4346.3603    
     69920   419.74989     -925.65772      94.564211      4344.5581    
     69930   398.00489     -925.08261      506.70161      4342.7825    
     69940   396.25128     -925.06663      904.90323      4341.2207    
     69950   429.35462     -926.02968      1166.0455      4340.0602    
     69960   401.21806     -925.3097       1372.1772      4339.4376    
     69970   373.35189     -924.60489      1282.2237      4339.4498    
     69980   397.11483     -925.33987      946.97711      4340.0681    
     69990   393.10174     -925.31487      808.90622      4341.1661    
     70000   388.85908     -925.29188      652.81146      4342.6789    
     70010   429.2254      -926.53187      168.51619      4344.5269    
     70020   415.03815     -926.2913      -281.47017      4346.5062    
     70030   375.66149     -925.36021     -719.99308      4348.4033    
     70040   399.85772     -926.20132     -1321.1311      4349.9962    
     70050   389.93623     -926.1061      -1596.6741      4351.0142    
     70060   340.91748     -924.89988     -1668.2993      4351.305     
     70070   360.7582      -925.57721     -1815.5347      4350.8032    
     70080   383.00629     -926.30916     -1551.07        4349.4417    
     70090   358.58663     -925.72364     -810.65354      4347.3304    
     70100   382.39145     -926.45841     -209.67829      4344.7768    
     70110   393.89134     -926.842        380.77778      4342.0667    
     70120   363.12109     -926.03726      1084.4069      4339.4833    
     70130   373.37794     -926.35545      1583.4234      4337.3492    
     70140   386.41953     -926.73838      1871.7079      4335.9134    
     70150   364.41671     -926.13632      2014.6222      4335.3336    
     70160   372.43744     -926.35515      1853.6609      4335.6919    
     70170   380.94921     -926.5738       1515.5671      4336.9422    
     70180   355.21084     -925.82676      1154.3072      4338.956     
     70190   372.80498     -926.2656       498.79938      4341.5682    
     70200   388.15011     -926.62035     -178.06339      4344.4962    
     70210   349.85387     -925.46999     -684.92267      4347.4347    
     70220   375.23637     -926.06974     -1457.7712      4350.1193    
     70230   420.46553     -927.18931     -2140.9974      4352.1876    
     70240   366.68249     -925.55593     -2161.4146      4353.3201    
     70250   344.73379     -924.81194     -2139.4116      4353.4498    
     70260   384.22622     -925.74825     -2154.7366      4352.556     
     70270   381.94968     -925.50656     -1563.3638      4350.6353    
     70280   386.78074     -925.47032     -686.78103      4347.9285    
     70290   420.88136     -926.25322      122.22382      4344.821     
     70300   406.24109     -925.70603      1016.7298      4341.7       
     70310   395.95707     -925.31229      1696.902       4338.9789    
     70320   437.8091      -926.38929      1974.0534      4336.9829    
     70330   410.93809     -925.58347      2291.1636      4335.8862    
     70340   384.07789     -924.80089      2307.1494      4335.8461    
     70350   400.68776     -925.23062      1894.6148      4336.893     
     70360   400.99379     -925.21065      1420.0599      4338.8779    
     70370   396.53808     -925.06344      836.18511      4341.5974    
     70380   401.38413     -925.17558      30.838356      4344.7892    
     70390   407.62939     -925.32908     -856.15908      4348.085     
     70400   380.17378     -924.54583     -1459.5623      4351.0798    
     70410   390.3819      -924.80539     -1993.1973      4353.4609    
     70420   404.01984     -925.15492     -2281.006       4354.964     
     70430   404.76403     -925.14903     -2281.8002      4355.4269    
     70440   419.71466     -925.54401     -2050.3387      4354.8198    
     70450   436.35604     -925.99831     -1579.0046      4353.227     
     70460   437.62622     -926.04601     -942.91753      4350.85      
     70470   421.04773     -925.61883     -393.40643      4347.9646    
     70480   391.66188     -924.84345      176.53273      4344.8279    
     70490   386.30104     -924.73162      794.5816       4341.7085    
     70500   397.15025     -925.06348      1393.6828      4338.9009    
     70510   408.82698     -925.41945      1823.9092      4336.6901    
     70520   400.74641     -925.23053      2173.1902      4335.2999    
     70530   403.07921     -925.33686      2328.6701      4334.9088    
     70540   394.79299     -925.15142      2174.6272      4335.6121    
     70550   397.52223     -925.2746       1622.5218      4337.3567    
     70560   397.68883     -925.32845      935.05146      4339.9165    
     70570   387.4824      -925.09429      282.94127      4342.99      
     70580   381.75251     -924.97906     -312.92127      4346.279     
     70590   408.32054     -925.75937     -948.2869       4349.4974    
     70600   422.23401     -926.19847     -1532.8023      4352.3431    
     70610   403.00342     -925.73276     -2014.3455      4354.5277    
     70620   386.56835     -925.35343     -2369.2998      4355.8048    
     70630   392.84619     -925.60966     -2468.5576      4355.9882    
     70640   412.81231     -926.26073     -2286.7222      4355.0079    
     70650   398.05149     -925.96506     -1822.8669      4352.929     
     70660   378.25962     -925.5355      -1237.7167      4349.946     
     70670   385.65819     -925.8633      -548.19657      4346.323     
     70680   387.62656     -926.04376      312.70843      4342.3819    
     70690   370.95017     -925.70367      1231.5955      4338.5244    
     70700   358.21657     -925.45911      1937.5246      4335.1774    
     70710   366.70465     -925.79205      2423.9939      4332.6848    
     70720   359.53811     -925.67719      2810.1604      4331.2985    
     70730   365.45952     -925.91148      2892.5761      4331.2117    
     70740   397.01418     -926.85378      2564.896       4332.4828    
     70750   384.58301     -926.57479      2065.3302      4334.9947    
     70760   361.03223     -925.97717      1296.4292      4338.5296    
     70770   386.38504     -926.72659      252.21568      4342.7404    
     70780   388.05695     -926.80999     -666.95103      4347.1627    
     70790   365.96504     -926.22449     -1534.0906      4351.3554    
     70800   369.6787      -926.34188     -2432.7814      4354.8937    
     70810   380.54493     -926.64483     -3168.7411      4357.3407    
     70820   367.12255     -926.26167     -3426.8855      4358.3372    
     70830   364.00393     -926.15125     -3324.0971      4357.727     
     70840   361.39811     -926.03351     -2919.0008      4355.5313    
     70850   351.5876      -925.68721     -2116.386       4351.926     
     70860   364.93465     -925.94531     -1011.4775      4347.2724    
     70870   380.43567     -926.21499      323.53874      4342.0833    
     70880   381.28532     -926.03834      1644.5852      4336.9779    
     70890   385.37352     -925.92702      2740.0146      4332.576     
     70900   380.70285     -925.56203      3607.6272      4329.4054    
     70910   386.20777     -925.48892      4040.6851      4327.8823    
     70920   413.97031     -926.04914      3905.467       4328.2286    
     70930   413.75669     -925.86492      3445.3234      4330.4193    
     70940   394.34147     -925.19038      2777.7385      4334.2729    
     70950   402.30793     -925.30234      1594.456       4339.4885    
     70960   441.17411     -926.28623     -41.451234      4345.5296    
     70970   423.16572     -925.71208     -1536.9239      4351.6586    
     70980   383.52773     -924.55723     -2794.5162      4357.1624    
     70990   377.3188      -924.3317      -3807.364       4361.4249    
     71000   394.35422     -924.74703     -4407.8429      4363.9449    
     71010   407.6246      -925.06054     -4463.0165      4364.4125    
     71020   411.7308      -925.13062     -4015.1513      4362.7701    
     71030   408.64517     -925.0123      -3126.1982      4359.2059    
     71040   412.44657     -925.0921      -1960.5277      4354.1194    
     71050   425.88415     -925.44497     -671.4652       4348.0483    
     71060   416.32116     -925.16689      773.17596      4341.6001    
     71070   384.79721     -924.27938      2398.8707      4335.4619    
     71080   400.96905     -924.70993      3770.4306      4330.3851    
     71090   443.9844      -925.88996      4649.3036      4327.0175    
     71100   434.16509     -925.62757      4962.7582      4325.7874    
     71110   413.49528     -925.08991      4630.0493      4326.8631    
     71120   427.64375     -925.53996      3652.9557      4330.1163    
     71130   412.57029     -925.19348      2413.9215      4335.1363    
     71140   397.89711     -924.8634       832.42621      4341.3571    
     71150   402.47447     -925.06638     -902.98352      4348.0546    
     71160   387.60295     -924.7252      -2274.5907      4354.4311    
     71170   376.31146     -924.47465     -3351.4538      4359.8197    
     71180   400.44132     -925.20534     -4259.7254      4363.6818    
     71190   414.79669     -925.67593     -4675.9463      4365.5737    
     71200   406.79994     -925.54337     -4567.0168      4365.2712    
     71210   407.39294     -925.66597     -4048.7053      4362.7975    
     71220   399.11741     -925.55524     -2963.7417      4358.3886    
     71230   382.27375     -925.20463     -1491.3304      4352.5414    
     71240   402.94985     -925.89341     -69.104997      4345.9308    
     71250   408.29953     -926.1624       1311.6341      4339.2302    
     71260   384.77309     -925.62636      2672.3668      4333.0958    
     71270   383.92533     -925.71437      3764.3593      4328.1613    
     71280   384.09113     -925.8259       4497.8109      4324.946     
     71290   391.79496     -926.14788      4744.554       4323.8027    
     71300   387.74545     -926.1484       4493.7034      4324.8661    
     71310   351.35305     -925.23946      3767.2612      4328.0439    
     71320   362.4605      -925.62835      2530.129       4333.02      
     71330   400.89088     -926.76451      916.99846      4339.2396    
     71340   368.83366     -925.92967     -584.61042      4345.9785    
     71350   353.64481     -925.54057     -1977.4907      4352.5273    
     71360   394.37411     -926.68617     -3303.244       4358.2135    
     71370   393.90274     -926.68061     -4178.519       4362.4076    
     71380   370.33305     -926.03216     -4554.3858      4364.6717    
     71390   370.15985     -926.02807     -4638.6259      4364.7918    
     71400   368.24086     -925.96316     -4290.8113      4362.7143    
     71410   386.55242     -926.44636     -3440.8485      4358.5898    
     71420   387.09187     -926.41652     -2066.0556      4352.8137    
     71430   365.58074     -925.7492      -468.08156      4346.02      
     71440   366.53277     -925.66603      1103.8253      4338.9536    
     71450   377.54688     -925.80562      2649.3818      4332.3581    
     71460   378.26693     -925.60289      4030.3123      4326.9602    
     71470   401.84096     -925.98835      4915.9761      4323.4001    
     71480   407.87756     -925.86317      5323.98        4322.1076    
     71490   396.70126     -925.28585      5157.1906      4323.2885    
     71500   413.34697     -925.51943      4362.7386      4326.8875    
     71510   419.66613     -925.50543      3105.1151      4332.5683    
     71520   396.46001     -924.71659      1440.4665      4339.7664    
     71530   399.97048     -924.69654     -396.308        4347.7248    
     71540   408.11961     -924.8147      -2170.1771      4355.5886    
     71550   417.60216     -924.98203     -3718.4138      4362.5141    
     71560   434.67325     -925.37836     -4914.547       4367.7489    
     71570   431.81443     -925.2492      -5595.3406      4370.7027    
     71580   414.22783     -924.7395      -5645.9944      4371.0281    
     71590   423.41322     -924.99658     -5149.3217      4368.672     
     71600   408.58951     -924.60231     -4075.6879      4363.8582    
     71610   395.66465     -924.26538     -2662.8768      4357.0784    
     71620   415.83247     -924.84563     -1054.2109      4348.9948    
     71630   398.15799     -924.3688       1041.4239      4340.3848    
     71640   398.31102     -924.37556      3228.9488      4332.2248    
     71650   452.23668     -925.87922      4755.7028      4325.5122    
     71660   431.8122      -925.3431       5885.0695      4320.9834    
     71670   399.53378     -924.50044      6441.9658      4319.1677    
     71680   427.22326     -925.34488      6107.8247      4320.3291    
     71690   429.58342     -925.51335      5123.9715      4324.3492    
     71700   413.71631     -925.1936       3557.2556      4330.8001    
     71710   432.67274     -925.85462      1434.5579      4338.9729    
     71720   402.05409     -925.1421      -554.0856       4347.9192    
     71730   377.00658     -924.56272     -2540.2191      4356.6928    
     71740   409.31091     -925.56534     -4588.4156      4364.3359    
     71750   385.68877     -925.01246     -5990.6965      4369.8809    
     71760   340.29745     -923.83512     -6503.7909      4372.6389    
     71770   389.25028     -925.26889     -6436.9059      4372.3198    
     71780   433.13884     -926.57502     -5585.4947      4368.9461    
     71790   412.38278     -926.10256     -4021.1705      4362.9102    
     71800   390.95847     -925.60947     -2205.0674      4354.9341    
     71810   394.46633     -925.79489     -259.68611      4345.8783    
     71820   384.4754      -925.58586      1872.6648      4336.6714    
     71830   387.23148     -925.71144      3770.3369      4328.3016    
     71840   386.8285      -925.73791      5265.7479      4321.6545    
     71850   379.9835      -925.57797      6403.0426      4317.4357    
     71860   403.40432     -926.26306      6806.8149      4316.1659    
     71870   414.74271     -926.62763      6386.8061      4318.0471    
     71880   396.18257     -926.17739      5166.4442      4322.9098    
     71890   365.53551     -925.38692      3231.9514      4330.2154    
     71900   364.49149     -925.39539      917.57655      4339.0952    
     71910   377.98984     -925.7795      -1327.5667      4348.4913    
     71920   366.51168     -925.44372     -3232.622       4357.3506    
     71930   366.698       -925.40994     -4818.8703      4364.752     
     71940   387.11828     -925.92036     -5957.5798      4369.9227    
     71950   387.804       -925.87503     -6372.0383      4372.3051    
     71960   374.93604     -925.44924     -6081.5614      4371.6781    
     71970   397.17012     -925.98643     -5290.2567      4368.1557    
     71980   409.80948     -926.23352     -3913.2924      4362.1138    
     71990   396.21443     -925.72934     -2019.7715      4354.2066    
     72000   409.91051     -925.94855      75.985986      4345.3228    
     72010   413.95371     -925.85656      2265.6282      4336.4568    
     72020   418.68737     -925.75485      4059.235       4328.6194    
     72030   420.34425     -925.55527      5235.6809      4322.644     
     72040   384.85795     -924.33549      6030.7572      4319.0917    
     72050   371.6464      -923.75896      6342.1298      4318.3351    
     72060   444.6358      -925.5794       5658.3709      4320.5072    
     72070   434.70333     -925.12293      4514.3678      4325.3355    
     72080   371.48462     -923.24696      3121.8931      4332.3155    
     72090   406.55583     -924.12051      1134.0149      4340.7957    
     72100   454.16226     -925.34204     -1043.8503      4349.8697    
     72110   423.11405     -924.40449     -2871.4431      4358.5308    
     72120   415.60768     -924.14441     -4448.5749      4365.8925    
     72130   439.34757     -924.76846     -5635.5888      4371.1893    
     72140   441.05113     -924.80811     -6015.1068      4373.8528    
     72150   452.35088     -925.15091     -5841.971       4373.6698    
     72160   453.48031     -925.24954     -5272.7587      4370.7055    
     72170   431.41215     -924.73289     -4234.1877      4365.2311    
     72180   413.44049     -924.33904     -2769.176       4357.7383    
     72190   416.1713      -924.5163      -866.24137      4348.9315    
     72200   417.24107     -924.64044      1211.1701      4339.7068    
     72210   406.82999     -924.43624      3221.3345      4331.0379    
     72220   405.74877     -924.48225      4944.8106      4323.8597    
     72230   426.82329     -925.14833      6175.0925      4318.968     
     72240   424.72747     -925.19117      6754.2216      4316.9316    
     72250   396.86376     -924.53059      6443.5172      4318.0156    
     72260   398.52944     -924.69314      5318.6241      4322.0946    
     72270   403.08631     -924.9342       3766.4206      4328.679     
     72280   404.4111      -925.07694      2008.5062      4337.0721    
     72290   427.84321     -925.82792     -61.353142      4346.4555    
     72300   424.32812     -925.8291      -2190.1678      4355.8681    
     72310   395.63077     -925.11913     -4177.6344      4364.3004    
     72320   407.69714     -925.53152     -5821.778       4370.797     
     72330   416.0405      -925.84755     -6716.8858      4374.5678    
     72340   389.63276     -925.20401     -6760.7269      4375.1715    
     72350   397.65301     -925.52066     -6324.8846      4372.5559    
     72360   398.4214      -925.63882     -5223.4426      4366.9363    
     72370   377.94583     -925.15674     -3345.8529      4358.8493    
     72380   384.57576     -925.40479     -1087.7544      4349.1807    
     72390   399.55572     -925.8632       1157.6975      4338.9944    
     72400   373.39278     -925.15649      3380.3199      4329.3564    
     72410   369.16243     -925.03647      5312.6791      4321.294     
     72420   392.96491     -925.68247      6720.0019      4315.696     
     72430   406.44358     -926.04621      7413.0071      4313.2057    
     72440   406.44899     -926.05413      7179.3459      4314.1363    
     72450   386.053       -925.5099       6143.176       4318.3963    
     72460   374.33684     -925.2056       4514.8639      4325.5291    
     72470   401.60236     -925.97054      2402.1064      4334.7979    
     72480   428.08023     -926.70256      13.479432      4345.2345    
     72490   393.56954     -925.73299     -2321.6375      4355.7315    
     72500   383.02724     -925.41744     -4603.8183      4365.1694    
     72510   400.84409     -925.87719     -6461.2336      4372.4611    
     72520   404.51969     -925.94992     -7502.925       4376.7137    
     72530   365.3035      -924.84306     -7582.7382      4377.4197    
     72540   363.55812     -924.78062     -7021.9103      4374.5172    
     72550   385.59506     -925.36764     -5675.9943      4368.2878    
     72560   389.47431     -925.43168     -3482.3248      4359.3914    
     72570   396.66978     -925.55965     -840.67177      4348.8723    
     72580   403.80995     -925.64918      1686.357       4337.9713    
     72590   397.15873     -925.31919      4044.4064      4327.8856    
     72600   414.37338     -925.61781      5986.9486      4319.7035    
     72610   431.01287     -925.87075      7307.9631      4314.3115    
     72620   408.80711     -925.03981      7898.4464      4312.307     
     72630   400.53461     -924.60243      7561.4701      4313.9506    
     72640   441.65625     -925.5272       6297.9454      4319.0895    
     72650   431.01563     -925.01571      4495.2108      4327.1696    
     72660   413.67721     -924.34767      2053.2215      4337.3554    
     72670   420.40622     -924.35532     -704.42326      4348.5232    
     72680   422.03625     -924.22905     -3175.6393      4359.3972    
     72690   425.3806      -924.16904     -5224.2617      4368.7948    
     72700   423.20429     -923.98391     -6633.492       4375.734     
     72710   439.41941     -924.34598     -7416.7174      4379.5236    
     72720   458.8027      -924.84215     -7474.7687      4379.7868    
     72730   441.3695      -924.36741     -6706.6825      4376.5037    
     72740   411.43578     -923.5761      -5236.6864      4370.052     
     72750   438.76835     -924.38701     -3372.3947      4361.1422    
     72760   446.54803     -924.66508     -1060.9626      4350.6869    
     72770   409.14066     -923.68379      1679.3553      4339.7995    
     72780   432.49415     -924.38071      4157.9737      4329.7463    
     72790   456.24963     -925.09788      6057.7414      4321.6709    
     72800   454.40386     -925.13492      7129.4544      4316.4302    
     72810   438.50154     -924.81376      7314.6886      4314.4999    
     72820   423.11494     -924.5286       6821.2397      4315.9609    
     72830   405.08064     -924.1741       5666.5956      4320.5782    
     72840   407.74666     -924.38667      3948.9767      4327.8212    
     72850   411.02496     -924.60325      1953.3522      4336.9048    
     72860   406.90768     -924.59409     -158.29646      4346.9032    
     72870   424.97361     -925.18402     -2447.0795      4356.8148    
     72880   427.63599     -925.33909     -4510.4816      4365.5666    
     72890   412.02029     -924.9826      -6037.1572      4372.1799    
     72900   417.0571      -925.20431     -6959.2948      4375.9203    
     72910   404.16405     -924.93581     -7033.4789      4376.3598    
     72920   409.34288     -925.17617     -6341.122       4373.4686    
     72930   428.41778     -925.81304     -4971.414       4367.5959    
     72940   411.95901     -925.46663     -3122.8143      4359.412     
     72950   393.94904     -925.06306     -1116.9439      4349.8066    
     72960   395.93683     -925.19372      1024.0462      4339.7467    
     72970   388.17546     -925.02988      3264.4671      4330.2459    
     72980   393.24        -925.20433      5166.8212      4322.3282    
     72990   397.94168     -925.36366      6495.0964      4316.8542    
     73000   385.29326     -925.04361      7090.4729      4314.4115    
     73010   393.38715     -925.30601      6873.5863      4315.2519    
     73020   406.31839     -925.71207      5988.0763      4319.2672    
     73030   403.16104     -925.67781      4470.1816      4326.0416    
     73040   404.55319     -925.76902      2372.4059      4334.8681    
     73050   405.9899      -925.85164      53.618116      4344.7795    
     73060   407.09586     -925.91539     -2177.4605      4354.6924    
     73070   389.66744     -925.45391     -4084.1236      4363.5572    
     73080   383.89084     -925.30762     -5674.7819      4370.4589    
     73090   394.11173     -925.60332     -6788.8818      4374.6453    
     73100   403.3164      -925.88255     -7203.8515      4375.5985    
     73110   379.69785     -925.26192     -6619.2566      4373.1528    
     73120   379.07794     -925.28368     -5365.5665      4367.5979    
     73130   391.86573     -925.67008     -3587.8772      4359.5605    
     73140   388.2115      -925.58762     -1385.4562      4349.9126    
     73150   368.06772     -925.02327      1136.5926      4339.7172    
     73160   395.66626     -925.75866      3461.9408      4330.1453    
     73170   416.37091     -926.28491      5332.2107      4322.2694    
     73180   404.26202     -925.90428      6519.2         4316.9263    
     73190   376.6717      -925.10059      7050.0847      4314.6384    
     73200   392.59814     -925.50688      6838.4328      4315.6192    
     73210   406.03553     -925.83769      5856.7068      4319.7467    
     73220   393.06316     -925.4278       4367.0649      4326.5632    
     73230   394.82718     -925.40825      2356.827       4335.3658    
     73240   417.68677     -925.94158     -39.509128      4345.2123    
     73250   415.07534     -925.73788     -2249.5228      4354.9966    
     73260   417.3312      -925.65417     -4215.2446      4363.6676    
     73270   412.2219      -925.35768     -5761.0958      4370.2977    
     73280   382.08449     -924.37109     -6620.6421      4374.1673    
     73290   378.98295     -924.14024     -6830.6123      4374.8787    
     73300   408.76974     -924.81682     -6326.4169      4372.3596    
     73310   409.02993     -924.67469     -4961.9431      4366.8944    
     73320   401.02241     -924.3136      -3073.5321      4359.157     
     73330   428.13933     -924.92783     -974.1466       4350.0645    
     73340   449.09929     -925.37195      1345.7411      4340.6334    
     73350   428.01393     -924.66768      3630.9911      4331.9511    
     73360   430.45302     -924.63972      5281.8915      4325.0469    
     73370   444.65175     -924.96246      6261.9652      4320.6618    
     73380   441.62335     -924.8433       6592.6561      4319.2174    
     73390   430.82648     -924.54564      6166.8224      4320.8292    
     73400   436.12338     -924.72561      5043.8797      4325.2736    
     73410   435.53005     -924.76384      3432.5619      4332.0192    
     73420   442.56837     -925.03355      1286.7302      4340.2958    
     73430   415.41389     -924.36212     -926.12067      4349.1087    
     73440   387.70294     -923.66751     -2807.5798      4357.4267    
     73450   406.48381     -924.25636     -4431.7206      4364.3531    
     73460   422.71639     -924.78472     -5533.23        4369.1344    
     73470   400.35216     -924.25541     -5830.2177      4371.275     
     73480   411.96329     -924.68233     -5560.7975      4370.647     
     73490   447.45353     -925.79983     -4826.6703      4367.4075    
     73500   419.46392     -925.18126     -3548.0937      4361.9461    
     73510   381.99884     -924.28913     -2017.0297      4354.8918    
     73520   418.37017     -925.43939     -412.90708      4346.9861    
     73530   416.90174     -925.53478      1587.8424      4339.0183    
     73540   410.91135     -925.49278      3377.8918      4331.9003    
     73550   435.43604     -926.29989      4533.491       4326.4353    
     73560   418.1166      -925.95117      5265.5717      4323.1435    
     73570   390.41962     -925.30274      5431.8317      4322.3274    
     73580   400.87134     -925.7038       4651.6687      4324.0132    
     73590   368.95963     -924.90876      3512.8389      4327.8376    
     73600   348.87552     -924.40928      2334.1871      4333.2625    
     73610   383.47034     -925.39996      893.65177      4339.7128    
     73620   397.38576     -925.7974      -565.43213      4346.5165    
     73630   388.83625     -925.55967     -1895.5651      4352.9902    
     73640   404.09334     -925.9773      -3146.8213      4358.504     
     73650   395.57189     -925.73282     -3998.5132      4362.4882    
     73660   383.60672     -925.39319     -4403.2548      4364.5543    
     73670   399.43463     -925.82614     -4417.9913      4364.5286    
     73680   403.19932     -925.92774     -3965.5741      4362.4354    
     73690   393.31247     -925.65399     -3057.8665      4358.5175    
     73700   399.38283     -925.82195     -1755.3054      4353.2319    
     73710   406.84063     -926.02423     -363.63752      4347.2029    
     73720   402.10997     -925.88581      981.79852      4341.094     
     73730   389.38478     -925.52174      2192.747       4335.5332    
     73740   388.27483     -925.47358      3166.4151      4331.0735    
     73750   400.88432     -925.80348      3745.1626      4328.1422    
     73760   381.98396     -925.25797      4014.3333      4326.9905    
     73770   366.24576     -924.7967       3816.9556      4327.7104    
     73780   386.07931     -925.31233      3227.1223      4330.1899    
     73790   403.15232     -925.74065      2386.6568      4334.1402    
     73800   389.83743     -925.31986      1365.3242      4339.158     
     73810   381.4623      -925.02779      172.69783      4344.7536    
     73820   398.98645     -925.43865     -1099.6718      4350.3662    
     73830   424.73783     -926.06518     -2262.9565      4355.4022    
     73840   415.6263      -925.7248      -3007.694       4359.3321    
     73850   413.80806     -925.59513     -3494.7031      4361.8069    
     73860   434.82318     -926.10571     -3805.9622      4362.6073    
     73870   421.45791     -925.67464     -3721.3533      4361.6187    
     73880   383.12901     -924.5617      -3186.4968      4358.9076    
     73890   369.84488     -924.13599     -2240.7581      4354.7514    
     73900   403.86687     -924.99801     -1038.4051      4349.614     
     73910   416.18025     -925.22994      361.77757      4344.0778    
     73920   400.37318     -924.66631      1722.5895      4338.7965    
     73930   417.15166     -924.99097      2779.4779      4334.3913    
     73940   441.78046     -925.51506      3470.5355      4331.3389    
     73950   429.07543     -925.00363      3780.9031      4329.9399    
     73960   411.1198      -924.35743      3646.7329      4330.3113    
     73970   411.80996     -924.22972      3158.0989      4332.3705    
     73980   414.8251      -924.16017      2563.7651      4335.8825    
     73990   446.59002     -924.88598      1610.3154      4340.5405    
     74000   465.08438     -925.24924      443.0389       4345.8956    
     74010   435.29218     -924.30101     -773.09138      4351.3992    
     74020   428.35851     -924.01149     -2086.2011      4356.4734    
     74030   455.41135     -924.6802      -3201.3924      4360.513     
     74040   446.53721     -924.37754     -3686.8825      4363.021     
     74050   425.52757     -923.76932     -3812.4426      4363.7703    
     74060   437.28905     -924.09435     -3712.3782      4362.7198    
     74070   449.11194     -924.44852     -3149.0775      4359.9511    
     74080   429.48788     -923.95752     -2026.5743      4355.7635    
     74090   431.13913     -924.08275     -882.57734      4350.6848    
     74100   422.15235     -923.93421      365.12882      4345.2771    
     74110   424.68774     -924.12893      1589.0253      4340.1233    
     74120   436.66173     -924.62099      2609.9798      4335.7858    
     74130   425.47093     -924.50961      3419.5607      4332.7293    
     74140   421.86373     -924.6381       3709.7881      4331.2974    
     74150   447.34022     -925.61363      3341.9404      4331.5931    
     74160   424.21254     -925.25655      2943.8345      4333.4539    
     74170   401.95347     -924.89093      2287.4541      4336.6615    
     74180   418.52686     -925.56354      1218.6618      4340.8897    
     74190   426.95523     -925.97848     -45.609989      4345.6371    
     74200   388.65297     -925.05133     -1234.2182      4350.3155    
     74210   372.51488     -924.69195     -2225.3409      4354.3705    
     74220   396.71632     -925.42403     -2964.9449      4357.3403    
     74230   405.60721     -925.72095     -3274.0131      4358.8962    
     74240   383.03665     -925.13697     -3217.0652      4358.9061    
     74250   385.86109     -925.24986     -2903.2636      4357.4105    
     74260   399.54179     -925.65754     -2201.1627      4354.5855    
     74270   397.29743     -925.61901     -1194.9602      4350.7791    
     74280   399.08923     -925.68886     -193.4379       4346.467     
     74290   402.25493     -925.79368      763.35633      4342.1268    
     74300   403.79122     -925.85149      1701.0368      4338.2089    
     74310   412.09916     -926.1004       2414.6245      4335.1367    
     74320   400.97048     -925.81525      2806.4738      4333.2273    
     74330   375.99742     -925.14571      2825.5266      4332.6452    
     74340   371.2634      -925.02971      2499.5964      4333.3818    
     74350   382.24102     -925.33778      2077.6952      4335.2808    
     74360   397.69164     -925.76133      1457.6849      4338.1254    
     74370   400.12347     -925.81909      744.54311      4341.6231    
     74380   395.37587     -925.67508     -49.807258      4345.4341    
     74390   392.78189     -925.58628     -935.23909      4349.1799    
     74400   391.99179     -925.54068     -1638.8682      4352.4584    
     74410   408.00007     -925.95817     -2200.3954      4354.9368    
     74420   396.1438      -925.6015      -2499.3036      4356.365     
     74430   376.31868     -925.02209     -2589.7582      4356.6098    
     74440   390.61561     -925.38115     -2449.1265      4355.644     
     74450   420.35168     -926.1614      -1985.0623      4353.5513    
     74460   402.36268     -925.61729     -1117.936       4350.5711    
     74470   386.71813     -925.13816     -231.99773      4347.1073    
     74480   416.24537     -925.9055       412.69448      4343.5717    
     74490   414.64785     -925.80551      1086.9587      4340.2807    
     74500   381.24912     -924.82445      1762.5623      4337.5457    
     74510   395.01849     -925.14725      2075.0869      4335.6583    
     74520   405.65319     -925.3721       2243.6407      4334.7634    
     74530   376.07223     -924.47539      2455.4125      4334.9374    
     74540   388.43842     -924.73442      2304.7785      4336.2486    
     74550   419.05906     -925.482        1825.4948      4338.6194    
     74560   435.8221      -925.84032      1120.3697      4341.8191    
     74570   426.96308     -925.4968       246.09365      4345.5131    
     74580   406.52846     -924.84235     -700.34923      4349.2892    
     74590   415.19263     -924.99732     -1546.7977      4352.7092    
     74600   441.97893     -925.65695     -2171.495       4355.3797    
     74610   416.9039      -924.88942     -2420.6812      4357.0199    
     74620   395.6051      -924.23982     -2443.4595      4357.5138    
     74630   418.74627     -924.82355     -2306.6994      4356.8595    
     74640   442.41606     -925.42544     -2035.4752      4355.1323    
     74650   417.53836     -924.69459     -1512.3684      4352.4792    
     74660   392.83149     -923.97782     -806.85686      4349.1541    
     74670   412.92953     -924.50122      76.858671      4345.4984    
     74680   436.46541     -925.11888      976.25634      4341.9247    
     74690   423.96391     -924.74763      1734.2922      4338.8481    
     74700   410.12004     -924.35212      2271.5799      4336.614     
     74710   415.21682     -924.49134      2620.3039      4335.4659    
     74720   418.27527     -924.58362      2706.5623      4335.5521    
     74730   439.91897     -925.21033      2362.7066      4336.8938    
     74740   445.96757     -925.43583      1801.4586      4339.3289    
     74750   407.35903     -924.44967      1203.9859      4342.5947    
     74760   426.07129     -925.07624      265.29377      4346.3903    
     74770   459.60498     -926.15793     -835.4579       4350.2786    
     74780   412.53682     -925.03852     -1728.4078      4353.756     
     74790   381.76151     -924.37199     -2515.0981      4356.3968    
     74800   403.49388     -925.16569     -3047.3388      4357.8406    
     74810   393.55809     -925.08142     -3009.2952      4357.8587    
     74820   382.29608     -924.94131     -2624.149       4356.472     
     74830   394.27793     -925.43245     -2053.4021      4353.8689    
     74840   384.89217     -925.308       -1196.958       4350.3394    
     74850   399.00969     -925.81932     -348.6641       4346.2824    
     74860   389.47426     -925.65658      668.07435      4342.1144    
     74870   384.85694     -925.6105       1585.5408      4338.3013    
     74880   403.95118     -926.21138      2170.8801      4335.2596    
     74890   396.78641     -926.0788       2587.7324      4333.2622    
     74900   362.43255     -925.17781      2940.7843      4332.4975    
     74910   383.15811     -925.7911       2930.8511      4333.1066    
     74920   420.43969     -926.86081      2476.817       4335.0707    
     74930   400.06901     -926.33318      1830.2344      4338.1811    
     74940   389.06178     -926.06451      726.82627      4342.1149    
     74950   383.8099      -925.94617     -521.63058      4346.3622    
     74960   369.12863     -925.55146     -1446.8201      4350.354     
     74970   374.96203     -925.71237     -2231.3664      4353.6441    
     74980   366.05735     -925.44856     -2813.0587      4355.8688    
     74990   362.68245     -925.32352     -3070.7195      4356.7634    
     75000   389.05309     -926.00951     -2864.2454      4356.2223    
     75010   394.59245     -926.10654     -2224.9726      4354.3537    
     75020   364.30805     -925.20157     -1412.9733      4351.461     
     75030   383.98378     -925.67023     -714.76014      4347.9252    
     75040   410.94697     -926.32034      122.56406      4344.0925    
     75050   389.93024     -925.63077      1308.637       4340.3717    
     75060   400.18996     -925.80598      2146.144       4337.2865    
     75070   422.27481     -926.30106      2453.1745      4335.2163    
     75080   403.58009     -925.66792      2588.7189      4334.313     
     75090   399.4364      -925.4462       2501.4146      4334.6267    
     75100   422.37749     -925.97462      2099.5104      4336.1037    
     75110   405.66369     -925.40528      1599.5126      4338.5592    
     75120   370.8654      -924.33971      940.74654      4341.7509    
     75130   387.38551     -924.68859      35.458958      4345.3605    
     75140   412.64014     -925.26024     -798.7368       4348.974     
     75150   401.57562     -924.82042     -1414.9823      4352.204     
     75160   389.58127     -924.35969     -1901.362       4354.7565    
     75170   409.66161     -924.78721     -2305.3062      4356.4018    
     75180   433.53115     -925.32131     -2408.5919      4356.9636    
     75190   436.25058     -925.28766     -2192.8448      4356.3999    
     75200   421.71768     -924.80157     -1759.9591      4354.8166    
     75210   422.26062     -924.7544      -1153.1451      4352.4251    
     75220   443.79295     -925.30679     -485.16571      4349.513     
     75230   444.3991      -925.3025       306.28427      4346.4042    
     75240   415.25297     -924.49394      1053.9674      4343.4669    
     75250   427.84112     -924.85699      1385.87        4341.0345    
     75260   448.13879     -925.45362      1467.4795      4339.2651    
     75270   386.34333     -923.7806       1702.3247      4338.2119    
     75280   379.75128     -923.63143      1747.4623      4337.9619    
     75290   439.67003     -925.32571      1623.9575      4338.5331    
     75300   432.42101     -925.16741      1611.755       4339.8757    
     75310   392.59486     -924.1064       1402.9132      4341.9691    
     75320   436.65141     -925.37316      525.01135      4344.6884    
     75330   445.58714     -925.67346     -296.85704      4347.6515    
     75340   393.35137     -924.274       -786.48022      4350.4824    
     75350   401.63589     -924.54465     -1478.1869      4352.9227    
     75360   408.48859     -924.76665     -1980.3648      4354.6661    
     75370   402.88525     -924.63842     -2060.8525      4355.4876    
     75380   440.37577     -925.71221     -2003.1372      4355.3395    
     75390   444.69283     -925.88381     -1738.7896      4354.2572    
     75400   402.31694     -924.76765     -1197.1601      4352.3786    
     75410   428.12221     -925.54995     -882.055        4349.9373    
     75420   430.7935      -925.69996     -382.51329      4347.1079    
     75430   392.27425     -924.71         399.78865      4344.1318    
     75440   376.78727     -924.34571      1060.0972      4341.3613    
     75450   407.86845     -925.26798      1421.0812      4339.0969    
     75460   396.20162     -925.00071      1766.9109      4337.5195    
     75470   392.04365     -924.9391       1900.444       4336.7766    
     75480   399.93976     -925.21137      1886.0575      4336.9285    
     75490   392.17574     -925.04459      1831.2906      4337.973     
     75500   422.45819     -925.93917      1348.2664      4339.8606    
     75510   419.93752     -925.93362      809.30047      4342.38      
     75520   389.84107     -925.16764      336.55491      4345.2817    
     75530   395.62205     -925.39389     -339.44661      4348.3282    
     75540   421.4099      -926.17941     -1161.4211      4351.203     
     75550   408.04388     -925.88663     -1768.758       4353.5341    
     75560   384.77298     -925.32101     -2163.617       4355.0329    
     75570   373.22299     -925.07272     -2373.1002      4355.5134    
     75580   384.32917     -925.44483     -2306.6048      4354.8839    
     75590   394.04794     -925.77538     -1858.121       4353.1852    
     75600   381.08096     -925.47051     -1110.5628      4350.6327    
     75610   397.79668     -925.98482     -455.79955      4347.5675    
     75620   413.69228     -926.47928      182.39407      4344.3071    
     75630   388.16011     -925.8267       911.13953      4341.1576    
     75640   365.82565     -925.25585      1494.45        4338.4516    
     75650   368.49853     -925.36642      1791.3507      4336.452     
     75660   377.82875     -925.64976      2066.0073      4335.3077    
     75670   376.0818      -925.61558      2323.0424      4335.1433    
     75680   385.32412     -925.87716      2308.6908      4336.0662    
     75690   418.86026     -926.81047      1781.4722      4338.0551    
     75700   416.27895     -926.74703      1054.0149      4340.8759    
     75710   386.82117     -925.94464      223.80815      4344.1869    
     75720   365.90314     -925.37246     -649.02523      4347.599     
     75730   375.39044     -925.62945     -1475.4692      4350.7022    
     75740   375.37515     -925.60432     -1995.7321      4353.1175    
     75750   373.44898     -925.50889     -2242.4681      4354.5966    
     75760   386.27859     -925.80235     -2245.4952      4355.0238    
     75770   396.97381     -926.01576     -2042.787       4354.3989    
     75780   392.88898     -925.80152     -1669.7889      4352.8203    
     75790   385.09705     -925.46839     -1115.1121      4350.4702    
     75800   395.62059     -925.62301     -470.03457      4347.6102    
     75810   406.11965     -925.75707      250.89013      4344.5475    
     75820   395.26037     -925.28915      1041.3947      4341.624     
     75830   399.08991     -925.22693      1644.0952      4339.1996    
     75840   435.72891     -926.072        1922.2174      4337.5489    
     75850   415.60759     -925.35457      2183.0162      4336.815     
     75860   381.64279     -924.28013      2243.1083      4337.1086    
     75870   428.72059     -925.46358      1759.6178      4338.4392    
     75880   436.78646     -925.57096      1205.8938      4340.5992    
     75890   372.9797      -923.70927      845.01045      4343.34      
     75900   396.6897      -924.28532      73.395459      4346.4611    
     75910   458.89238     -925.92426     -892.77959      4349.6079    
     75920   424.23039     -924.89594     -1411.5526      4352.3528    
     75930   390.6775      -923.92196     -1679.6071      4354.4401    
     75940   418.40246     -924.6542      -2013.107       4355.7267    
     75950   427.81724     -924.88424     -2018.6698      4356.0769    
     75960   437.04208     -925.12822     -1830.7747      4355.482     
     75970   432.61155     -925.01497     -1447.4117      4354.0345    
     75980   411.99864     -924.46798     -876.8028       4351.9195    
     75990   434.60172     -925.13399     -412.78181      4349.3965    
     76000   451.34573     -925.66114      9.8998991      4346.6889    
     76010   413.85486     -924.70466      623.4577       4344.0102    
     76020   401.67517     -924.45849      1029.5499      4341.6287    
     76030   410.26073     -924.79614      1311.5809      4339.7397    
     76040   387.82343     -924.27444      1700.0079      4338.4846    
     76050   384.69681     -924.28263      1968.7043      4338.0335    
     76060   431.13138     -925.67454      1854.627       4338.4994    
     76070   438.53719     -926.00948      1562.9191      4339.8374    
     76080   399.49323     -925.06656      1143.6842      4341.9127    
     76090   396.05136     -925.11086      343.48458      4344.5135    
     76100   395.9561      -925.24287     -408.9625       4347.2827    
     76110   395.18861     -925.34831     -970.34448      4349.8694    
     76120   411.9904      -925.93854     -1438.4031      4352.0029    
     76130   408.86676     -925.97621     -1721.6562      4353.4657    
     76140   391.6804      -925.61176     -1811.1478      4354.125     
     76150   409.72757     -926.21784     -1902.9738      4353.9282    
     76160   396.8096      -925.95528     -1759.4544      4352.8455    
     76170   364.28936     -925.1267      -1356.1718      4350.9476    
     76180   370.12134     -925.3362      -910.2651       4348.4173    
     76190   389.71672     -925.90898     -279.53447      4345.4742    
     76200   379.50063     -925.6386       544.89789      4342.4195    
     76210   380.44873     -925.66717      1202.8859      4339.6256    
     76220   377.09033     -925.56379      1771.0413      4337.4064    
     76230   389.65701     -925.89538      2143.7694      4336.0214    
     76240   407.55155     -926.3737       2234.1091      4335.6416    
     76250   395.69469     -926.03111      2069.1104      4336.3084    
     76260   368.09968     -925.25062      1774.3122      4337.9508    
     76270   382.53236     -925.62881      1186.9239      4340.4215    
     76280   409.44835     -926.34637      406.62369      4343.4491    
     76290   395.31365     -925.9253      -272.43508      4346.6798    
     76300   376.34722     -925.36911     -900.99522      4349.7893    
     76310   403.756       -926.09521     -1570.6775      4352.4755    
     76320   412.26877     -926.29506     -2035.692       4354.4313    
     76330   392.42755     -925.71487     -2265.908       4355.4359    
     76340   376.83951     -925.25295     -2384.8517      4355.3741    
     76350   379.08615     -925.27862     -2216.4618      4354.1975    
     76360   388.17137     -925.48505     -1622.9431      4351.9931    
     76370   376.75952     -925.11284     -812.21093      4349.0363    
     76380   382.09095     -925.19547     -89.529646      4345.6984    
     76390   405.24022     -925.76071      639.13398      4342.3274    
     76400   396.65924     -925.44046      1462.0672      4339.2707    
     76410   377.78434     -924.83327      2241.8332      4336.9098    
     76420   413.71025     -925.74136      2524.549       4335.5899    
     76430   453.07966     -926.74554      2404.3335      4335.4469    
     76440   406.01873     -925.37083      2353.9164      4336.4484    
     76450   404.68589     -925.28351      1914.7141      4338.5474    
     76460   429.0348      -925.91049      1100.2169      4341.5437    
     76470   407.73536     -925.27796      114.70528      4345.0623    
     76480   380.85781     -924.4935      -789.56133      4348.6512    
     76490   391.10085     -924.73156     -1574.6991      4351.8803    
     76500   398.03965     -924.86583     -2025.4897      4354.3878    
     76510   405.98514     -925.02263     -2363.709       4355.9443    
     76520   417.57576     -925.27864     -2437.3338      4356.3972    
     76530   414.33624     -925.12426     -2246.9949      4355.7098    
     76540   417.12482     -925.14099     -1870.0615      4353.9673    
     76550   398.67276     -924.56587     -1137.1666      4351.357     
     76560   395.7989      -924.41433     -330.2613       4348.2136    
     76570   434.34558     -925.39536      313.52331      4344.9095    
     76580   428.2303      -925.12555      1032.9838      4341.7591    
     76590   392.59025     -924.03423      1944.2263      4339.1096    
     76600   449.43794     -925.49759      2445.7251      4337.3607    
     76610   469.92868     -925.93913      2576.1021      4336.7543    
     76620   434.26598     -924.84653      2382.8005      4337.3555    
     76630   422.49005     -924.43497      1870.2151      4339.0757    
     76640   422.39061     -924.34957      1179.7258      4341.6842    
     76650   437.61977     -924.692        330.37832      4344.8568    
     76660   424.12702     -924.24391     -389.48309      4348.21      
     76670   399.60575     -923.49716     -1038.959       4351.3986    
     76680   416.95058     -923.91113     -1633.5344      4354.1138    
     76690   449.68703     -924.7531      -2025.4285      4356.0762    
     76700   430.96346     -924.18345     -2086.5099      4357.1034    
     76710   422.43465     -923.91766     -2174.5729      4357.1448    
     76720   441.46974     -924.43349     -2149.5374      4356.1622    
     76730   435.82955     -924.28486     -1617.4407      4354.1818    
     76740   446.01639     -924.60247     -784.49196      4351.4429    
     76750   456.20078     -924.95202      53.003821      4348.3301    
     76760   453.53532     -924.98554      708.84061      4345.2304    
     76770   446.58276     -924.94019      1204.4851      4342.4564    
     76780   431.76335     -924.71089      1599.0376      4340.2439    
     76790   396.93502     -923.93352      1932.9156      4338.7832    
     76800   415.30839     -924.63151      1841.2614      4338.2157    
     76810   428.23568     -925.19223      1640.0365      4338.5174    
     76820   395.84352     -924.48123      1472.7823      4339.6044    
     76830   404.97568     -924.90328      1054.1049      4341.3889    
     76840   420.68342     -925.49753      441.72252      4343.6809    
     76850   401.37524     -925.10555     -149.49489      4346.2049    
     76860   383.2189      -924.71901     -776.56551      4348.6781    
     76870   391.96996     -925.05726     -1330.3615      4350.807     
     76880   406.73607     -925.54846     -1568.4799      4352.3368    
     76890   427.47416     -926.20667     -1628.8174      4353.1424    
     76900   413.17695     -925.89609     -1535.4214      4353.1916    
     76910   394.98386     -925.47381     -1427.4937      4352.516     
     76920   390.92621     -925.43473     -1249.2527      4351.1661    
     76930   395.63691     -925.62988     -940.53127      4349.2237    
     76940   404.77759     -925.94422     -430.79705      4346.8355    
     76950   386.2178      -925.48436      219.60068      4344.2384    
     76960   367.35679     -925.0021       827.74713      4341.7312    
     76970   390.44494     -925.67085      1283.5759      4339.5974    
     76980   415.6259      -926.39472      1624.1464      4338.0562    
     76990   388.1304      -925.65831      1860.6552      4337.2747    
     77000   371.84891     -925.22691      1715.5979      4337.3558    
     77010   394.19997     -925.86066      1318.1096      4338.2427    
     77020   377.1459      -925.39053      992.2097       4339.7711    
     77030   375.37784     -925.33611      655.73847      4341.7896    
     77040   389.38655     -925.70644      211.41891      4344.1397    
     77050   404.33185     -926.09458     -361.08469      4346.6132    
     77060   402.42944     -926.01261     -887.30376      4348.9476    
     77070   389.84111     -925.63239     -1205.0443      4350.8987    
     77080   397.57371     -925.81113     -1463.4686      4352.3034    
     77090   417.23591     -926.31747     -1719.7204      4353.0302    
     77100   391.71184     -925.5702      -1727.3533      4352.9612    
     77110   363.67026     -924.74764     -1532.7522      4352.0826    
     77120   403.55925     -925.79441     -1289.37        4350.4707    
     77130   410.24715     -925.90079     -720.00584      4348.2492    
     77140   371.07494     -924.7272      -33.61835       4345.6726    
     77150   383.94216     -924.98113      462.76886      4343.0504    
     77160   416.76752     -925.75719      922.95866      4340.6242    
     77170   405.46895     -925.29095      1584.07        4338.6254    
     77180   399.33448     -924.96356      2113.0153      4337.3551    
     77190   421.89845     -925.42117      2242.2239      4337.0605    
     77200   426.41235     -925.37384      2051.324       4337.8178    
     77210   421.52889     -925.07871      1667.9497      4339.5563    
     77220   426.19473     -925.06257      1068.3543      4342.1057    
     77230   412.12452     -924.54051      307.44102      4345.1955    
     77240   406.92263     -924.2781      -519.40705      4348.4755    
     77250   424.11177     -924.64396     -1221.2668      4351.5636    
     77260   445.38749     -925.13635     -1764.4183      4354.1222    
     77270   438.32673     -924.86807     -2052.2249      4355.8898    
     77280   424.58117     -924.44245     -2156.6861      4356.7127    
     77290   417.19549     -924.21165     -2094.6517      4356.5286    
     77300   424.3913      -924.39949     -2011.2237      4355.3463    
     77310   427.65216     -924.49296     -1675.0704      4353.2046    
     77320   413.8256      -924.12571     -891.47455      4350.2602    
     77330   413.72434     -924.14683      50.859612      4346.864     
     77340   439.02884     -924.88412      822.76013      4343.4464    
     77350   450.18596     -925.25202      1445.9502      4340.3751    
     77360   434.34521     -924.89903      2061.0471      4337.9557    
     77370   428.08737     -924.8337       2524.7255      4336.4816    
     77380   442.5288      -925.3716       2567.345       4336.1724    
     77390   420.16104     -924.91203      2229.2608      4337.0687    
     77400   396.26842     -924.41316      1583.729       4339.03      
     77410   402.56997     -924.74952      860.72598      4341.7759    
     77420   395.05436     -924.69301      192.77946      4344.9835    
     77430   396.86156     -924.87963     -591.06735      4348.3338    
     77440   401.64708     -925.13321     -1317.8428      4351.4641    
     77450   408.05126     -925.41527     -1860.0195      4354.0276    
     77460   426.17599     -926.01434     -2181.0902      4355.7579    
     77470   422.91091     -926.01498     -2361.4779      4356.483     
     77480   383.81642     -925.0049      -2376.9415      4356.1015    
     77490   374.5513      -924.79616     -2139.0909      4354.5927    
     77500   414.98779     -925.95412     -1598.0487      4352.0545    
     77510   399.27477     -925.54658     -671.29531      4348.738     
     77520   381.43693     -925.07062      208.21399      4345.0538    
     77530   416.65054     -926.06099      910.01407      4341.4103    
     77540   416.81804     -926.0801       1718.433       4338.156     
     77550   392.80315     -925.43091      2389.5904      4335.6675    
     77560   394.18788     -925.48586      2632.3453      4334.2614    
     77570   388.14318     -925.33043      2578.5465      4334.0754    
     77580   385.28758     -925.25843      2279.9813      4335.1055    
     77590   397.6447      -925.60479      1729.3308      4337.2302    
     77600   382.83189     -925.19123      1065.2349      4340.2147    
     77610   375.30059     -924.97079      295.58446      4343.7595    
     77620   399.7267      -925.62628     -506.86939      4347.5116    
     77630   408.55146     -925.84242     -1209.9981      4351.0983    
     77640   407.07831     -925.77537     -1878.9534      4354.1759    
     77650   403.61026     -925.65628     -2386.2754      4356.4202    
     77660   400.83735     -925.55916     -2579.8657      4357.5792    
     77670   408.88545     -925.7648      -2600.8187      4357.534     
     77680   421.38361     -926.10165     -2488.6357      4356.2517    
     77690   392.39528     -925.29392     -1948.7302      4353.7812    
     77700   377.90399     -924.88638     -1155.0753      4350.3529    
     77710   407.02442     -925.68138     -315.80355      4346.3235    
     77720   390.31555     -925.19723      677.51574      4342.0907    
     77730   357.45199     -924.25392      1762.0711      4338.1224    
     77740   408.72985     -925.63095      2525.7085      4334.917     
     77750   435.84342     -926.32824      3085.461       4332.8557    
     77760   389.52197     -924.99768      3326.2049      4332.2166    
     77770   387.71057     -924.90638      2890.8205      4333.1205    
     77780   422.47944     -925.82219      2163.2687      4335.4057    
     77790   405.18795     -925.29114      1546.3077      4338.7711    
     77800   383.60726     -924.6409       787.30779      4342.9334    
     77810   417.04723     -925.50686     -260.30897      4347.5395    
     77820   428.8946      -925.76432     -1172.5714      4352.1185    
     77830   416.40913     -925.35142     -1985.3181      4356.2309    
     77840   437.91225     -925.8913      -2875.3673      4359.4668    
     77850   401.60547     -924.83438     -3419.0189      4361.4033    
     77860   387.68049     -924.40573     -3732.1798      4361.7457    
     77870   419.97204     -925.2565      -3613.296       4360.3235    
     77880   400.63079     -924.67309     -2659.1874      4357.1855    
     77890   378.91283     -924.01972     -1377.7984      4352.742     
     77900   444.23859     -925.77144     -379.72809      4347.5582    
     77910   431.9617      -925.36496      912.02079      4342.1325    
     77920   383.31164     -923.95862      2215.1747      4337.0624    
     77930   428.83555     -925.16513      2953.8518      4332.9434    
     77940   411.82038     -924.63271      3654.3984      4330.1643    
     77950   383.23038     -923.78561      4220.7499      4329.0724    
     77960   461.53002     -925.90881      3952.1118      4329.9274    
     77970   451.25236     -925.5896       3398.0506      4332.6665    
     77980   393.82033     -923.98818      2556.6001      4337.0614    
     77990   456.91706     -925.74594      1063.6         4342.728     
     78000   459.28253     -925.83957     -492.02021      4349.0083    
     78010   383.14236     -923.77151     -1810.9285      4355.1855    
     78020   425.08471     -924.9908      -3270.9179      4360.6019    
     78030   435.99137     -925.37108     -4224.2879      4364.571     
     78040   376.66999     -923.81612     -4564.7845      4366.6088    
     78050   403.7485      -924.67086     -4816.9019      4366.4901    
     78060   410.88674     -924.99357     -4496.9378      4364.0814    
     78070   364.43814     -923.8276      -3268.1023      4359.5212    
     78080   413.34421     -925.30791     -1884.5228      4353.334     
     78090   437.41757     -926.1192      -168.78469      4346.1772    
     78100   374.18257     -924.499        1833.1311      4338.8578    
     78110   412.39063     -925.68303      3334.1707      4332.2891    
     78120   457.70203     -927.0925       4399.49        4327.1935    
     78130   394.41316     -925.49819      5250.1601      4324.1031    
     78140   385.67037     -925.40457      5258.4748      4323.4135    
     78150   412.23816     -926.294        4594.7312      4325.1728    
     78160   374.20407     -925.37747      3721.3205      4329.13      
     78170   358.24384     -925.0431       2429.9596      4334.9009    
     78180   383.2051      -925.81718      725.22358      4341.9087    
     78190   387.7419      -926.0007      -957.4152       4349.3866    
     78200   393.87526     -926.21043     -2627.4295      4356.5363    
     78210   396.88061     -926.32359     -4133.1744      4362.555     
     78220   360.94685     -925.34306     -5109.3251      4366.7122    
     78230   368.69748     -925.56547     -5632.6911      4368.4969    
     78240   379.02769     -925.85154     -5415.0498      4367.6342    
     78250   362.57157     -925.38776     -4443.2044      4364.1914    
     78260   373.04896     -925.65962     -3048.8276      4358.5928    
     78270   405.24423     -926.51947     -1460.6296      4351.4757    
     78280   399.63012     -926.31904      402.86407      4343.5921    
     78290   402.44079     -926.34796      2204.3527      4335.808     
     78300   402.4118      -926.29305      3702.1287      4328.9678    
     78310   384.75821     -925.7486       4883.2742      4323.7863    
     78320   374.46232     -925.40705      5623.0021      4320.8287    
     78330   389.18824     -925.7584       5683.3269      4320.4564    
     78340   385.91942     -925.60903      5132.3273      4322.7353    
     78350   367.49543     -925.03745      4143.1525      4327.4544    
     78360   391.17589     -925.62262      2529.1749      4334.1787    
     78370   411.41925     -926.09334      628.25034      4342.1965    
     78380   387.86141     -925.33897     -1191.4344      4350.6422    
     78390   382.14284     -925.07142     -3025.5342      4358.6472    
     78400   411.08682     -925.75111     -4703.3899      4365.3273    
     78410   399.57699     -925.30558     -5655.9854      4369.8766    
     78420   389.53098     -924.91482     -5955.431       4371.7958    
     78430   399.76188     -925.09453     -5648.2265      4370.9027    
     78440   415.35267     -925.43042     -4763.9425      4367.3114    
     78450   431.29976     -925.7884      -3417.0913      4361.417     
     78460   420.24155     -925.41213     -1646.8318      4353.8483    
     78470   397.23813     -924.71235      377.39883      4345.4347    
     78480   420.36309     -925.29178      2197.3044      4337.1141    
     78490   437.77227     -925.71804      3718.9816      4329.7466    
     78500   386.05631     -924.23844      5110.5379      4324.0643    
     78510   398.82961     -924.55899      5921.9544      4320.7107    
     78520   441.97747     -925.73638      6020.8347      4320.0813    
     78530   400.96802     -924.60067      5596.4151      4322.2625    
     78540   386.14444     -924.20411      4375.0541      4327.0765    
     78550   416.97151     -925.07457      2668.2732      4334.0008    
     78560   396.47347     -924.51456      1000.9453      4342.2878    
     78570   415.77845     -925.05382     -948.16917      4351.1497    
     78580   460.33866     -926.29764     -2980.4568      4359.6729    
     78590   407.5734      -924.84762     -4473.7744      4366.9045    
     78600   398.87229     -924.61926     -5716.7923      4372.087     
     78610   458.8415      -926.31148     -6600.382       4374.5951    
     78620   396.33636     -924.62313     -6361.5556      4374.0069    
     78630   362.3517      -923.72421     -5451.3487      4370.385     
     78640   432.02898     -925.70269     -4267.7872      4364.1251    
     78650   407.7748      -925.07245     -2223.4097      4355.8137    
     78660   396.30375     -924.78808      90.458863      4346.3931    
     78670   449.1053      -926.28488      2063.9635      4336.9344    
     78680   403.17949     -925.04334      4059.9184      4328.3922    
     78690   368.566       -924.10553      5641.7963      4321.6886    
     78700   423.62198     -925.66042      6391.8531      4317.5515    
     78710   398.30909     -924.99524      6788.9231      4316.3716    
     78720   384.08963     -924.64884      6462.1612      4318.3395    
     78730   431.6428      -926.03027      5203.5451      4323.3266    
     78740   416.34753     -925.68083      3536.1916      4330.8057    
     78750   385.84127     -924.90641      1589.0225      4340.0313    
     78760   419.86686     -925.91623     -818.03892      4350.096     
     78770   406.04757     -925.58905     -3184.4168      4359.8871    
     78780   391.35796     -925.23037     -5239.6809      4368.2722    
     78790   398.7305      -925.48498     -6708.9383      4374.2507    
     78800   376.52469     -924.92236     -7211.8607      4377.1016    
     78810   391.12959     -925.38953     -7092.0773      4376.533     
     78820   419.16988     -926.24846     -6389.0659      4372.5759    
     78830   382.85582     -925.33149     -4823.9153      4365.5672    
     78840   369.32789     -925.0363      -2658.2396      4356.2393    
     78850   394.82777     -925.80548     -226.96798      4345.6113    
     78860   385.85688     -925.59719      2396.4276      4334.8412    
     78870   370.00238     -925.17483      4725.122       4325.1462    
     78880   407.28685     -926.21851      6495.1719      4317.6088    
     78890   422.39999     -926.65911      7729.9515      4313.0599    
     78900   401.62157     -926.13165      7983.3383      4312.0636    
     78910   378.28585     -925.55425      7043.7856      4314.7484    
     78920   373.136       -925.48664      5354.416       4320.7257    
     78930   375.01254     -925.6068       3414.8484      4329.2611    
     78940   376.05221     -925.68651      1259.2753      4339.4734    
     78950   394.84606     -926.24065     -1174.7004      4350.3602    
     78960   391.63062     -926.16771     -3616.7757      4360.7797    
     78970   369.04928     -925.54351     -5717.475       4369.568     
     78980   374.37123     -925.68653     -7194.3145      4375.7042    
     78990   370.58444     -925.57566     -7835.732       4378.4589    
     79000   360.25346     -925.28441     -7712.304       4377.4937    
     79010   377.90755     -925.76649     -6693.291       4372.8583    
     79020   392.8011      -926.15737     -4667.6095      4365.044     
     79030   411.93948     -926.64535     -2115.2695      4355.0045    
     79040   423.91294     -926.91343      496.02034      4343.9453    
     79050   388.69151     -925.85451      2982.2033      4333.103     
     79060   372.81069     -925.31528      5012.733       4323.6346    
     79070   397.79747     -925.88974      6427.1554      4316.4765    
     79080   361.94888     -924.76361      7639.4774      4312.3066    
     79090   354.84715     -924.43751      7956.5222      4311.6566    
     79100   426.12528     -926.27047      6985.0684      4314.6677    
     79110   412.5838      -925.74239      5516.1197      4320.9463    
     79120   382.89127     -924.7895       3643.6182      4329.8353    
     79130   439.19874     -926.21642      1177.6137      4340.4697    
     79140   414.98498     -925.39864     -1268.7326      4351.73      
     79150   371.96329     -924.07155     -3698.5746      4362.4524    
     79160   416.55851     -925.16937     -6003.1788      4371.4659    
     79170   412.35287     -924.91322     -7248.7383      4377.6897    
     79180   392.44625     -924.25124     -7620.4735      4380.4923    
     79190   439.85036     -925.48403     -7562.9016      4379.6572    
     79200   422.62557     -924.9511      -6579.416       4375.2331    
     79210   398.83296     -924.26311     -4788.6064      4367.6905    
     79220   462.02852     -925.99907     -2636.9737      4357.8779    
     79230   446.92737     -925.57286      12.651001      4346.8453    
     79240   383.79327     -923.81577      2675.3326      4335.8376    
     79250   422.99397     -924.8934       4610.7248      4326.0752    
     79260   432.62736     -925.15533      6263.3821      4318.4804    
     79270   394.00182     -924.09429      7513.2016      4313.8073    
     79280   406.95871     -924.48377      7659.864       4312.5941    
     79290   406.51399     -924.52146      7043.9821      4314.9255    
     79300   385.35781     -923.99361      5810.2936      4320.531     
     79310   433.33359     -925.39512      3895.1499      4328.8473    
     79320   430.94116     -925.40721      1778.864       4339.0188    
     79330   419.01001     -925.16088     -601.17964      4350.054     
     79340   440.76621     -925.85727     -3168.1139      4360.8305    
     79350   430.22437     -925.67652     -5388.1662      4370.1388    
     79360   388.84544     -924.64939     -6866.5411      4376.9206    
     79370   396.90451     -925.00773     -7800.5005      4380.4379    
     79380   397.06181     -925.16821     -7861.7844      4380.2511    
     79390   390.0833      -925.1447      -7035.7115      4376.332     
     79400   407.24874     -925.80073     -5449.8275      4369.0859    
     79410   410.61755     -926.07692     -3239.8139      4359.2874    
     79420   378.98471     -925.35413     -636.68771      4348.0047    
     79430   383.5941      -925.59869      1840.0119      4336.4615    
     79440   377.80451     -925.51866      4224.2378      4325.8329    
     79450   359.40011     -925.0519       6297.5489      4317.2171    
     79460   370.79275     -925.39017      7628.287       4311.5429    
     79470   395.10541     -926.08386      8141.1567      4309.4048    
     79480   399.64745     -926.24024      7928.3075      4311.0321    
     79490   382.91104     -925.81492      6877.1433      4316.3183    
     79500   399.23469     -926.30797      4949.801       4324.7806    
     79510   413.22624     -926.72816      2425.2382      4335.5432    
     79520   393.17246     -926.18802     -395.62116      4347.4417    
     79530   373.9077      -925.64321     -3254.8706      4359.153     
     79540   390.28642     -926.06406     -5767.3687      4369.325     
     79550   384.29184     -925.85439     -7537.2313      4376.7616    
     79560   354.53843     -924.98797     -8364.3042      4380.6136    
     79570   367.57386     -925.31588     -8260.7472      4380.4841    
     79580   393.14459     -925.99683     -7299.0667      4376.4349    
     79590   391.49614     -925.92889     -5518.784       4368.9554    
     79600   373.01599     -925.39115     -3199.0819      4358.9177    
     79610   369.32765     -925.24395     -603.93715      4347.4465    
     79620   390.08468     -925.74695      2050.7105      4335.7808    
     79630   396.80356     -925.83786      4591.9312      4325.1666    
     79640   396.32851     -925.7237       6640.2497      4316.7611    
     79650   410.65853     -926.02968      7972.181       4311.481     
     79660   405.07268     -925.8049       8468.707       4309.9081    
     79670   389.70257     -925.33466      7991.9473      4312.2415    
     79680   409.62752     -925.86192      6504.6554      4318.2427    
     79690   408.91727     -925.82165      4325.5859      4327.2317    
     79700   393.2884      -925.36406      1699.6161      4338.2006    
     79710   400.09675     -925.51229     -1038.0998      4349.931     
     79720   406.83184     -925.64032     -3647.6536      4361.1325    
     79730   381.35321     -924.86291     -5804.0612      4370.5735    
     79740   383.90529     -924.86124     -7422.5941      4377.2209    
     79750   390.90927     -924.98542     -8143.5999      4380.3205    
     79760   386.55976     -924.80651     -7876.6345      4379.5464    
     79770   405.46763     -925.28501     -6698.8341      4375.054     
     79780   400.31643     -925.09858     -4681.9076      4367.4465    
     79790   402.91221     -925.12262     -2380.8439      4357.7031    
     79800   441.92228     -926.14683     -66.200736      4346.9374    
     79810   425.83292     -925.63797      2469.8306      4336.2719    
     79820   392.66898     -924.65646      4700.5957      4326.8726    
     79830   422.93472     -925.4365       6092.6077      4319.7361    
     79840   417.66694     -925.2398       7031.7163      4315.4951    
     79850   390.76495     -924.46074      7448.4239      4314.5459    
     79860   431.92487     -925.58907      6885.1983      4317.0273    
     79870   423.37399     -925.3525       5643.3104      4322.6705    
     79880   402.87823     -924.79734      3694.1167      4330.8811    
     79890   424.67942     -925.4151       1145.5044      4340.7414    
     79900   394.80857     -924.58772     -1217.4297      4351.0857    
     79910   388.10035     -924.39232     -3479.6387      4360.7847    
     79920   415.74529     -925.1414      -5486.6268      4368.7695    
     79930   396.11587     -924.58326     -6615.9788      4374.1165    
     79940   381.29478     -924.1685      -6827.0428      4376.3027    
     79950   444.46292     -925.93578     -6463.302       4375.2375    
     79960   442.84914     -925.93553     -5338.1649      4371.1426    
     79970   404.05612     -924.93044     -3791.8241      4364.5803    
     79980   421.50688     -925.50226     -2214.9765      4356.3054    
     79990   406.44229     -925.17695     -191.51652      4347.1155    
     80000   391.59076     -924.85202      1894.3107      4337.9628    
     80010   400.28293     -925.17515      3619.2401      4329.8072    
     80020   400.50135     -925.26376      5130.6258      4323.4446    
     80030   407.48367     -925.54752      6160.4482      4319.5374    
     80040   423.60064     -926.10864      6280.9535      4318.5063    
     80050   393.12384     -925.39286      5764.5383      4320.3864    
     80060   378.2738      -925.10902      4602.9153      4324.9067    
     80070   387.74604     -925.49268      2934.2605      4331.5105    
     80080   378.2106      -925.33182      1130.2655      4339.4215    
     80090   385.77659     -925.626       -763.38049      4347.7851    
     80100   395.04633     -925.95344     -2546.991       4355.7143    
     80110   370.5197      -925.32716     -3958.2436      4362.3776    
     80120   373.77009     -925.45781     -4996.3283      4367.1127    
     80130   403.30851     -926.3163      -5611.3241      4369.4433    
     80140   398.09036     -926.2176      -5463.5396      4369.1174    
     80150   387.31945     -925.97036     -4656.9177      4366.235     
     80160   401.44883     -926.41648     -3621.0765      4361.1956    
     80170   395.92045     -926.3162      -2244.5969      4354.5326    
     80180   368.9776      -925.61003     -511.12246      4346.9258    
     80190   362.97909     -925.46358      1234.0908      4339.193     
     80200   370.83367     -925.67742      2781.7311      4332.1466    
     80210   372.95518     -925.71293      4077.9748      4326.4944    
     80220   368.86571     -925.56155      4996.5096      4322.8104    
     80230   382.95963     -925.90458      5403.3565      4321.4834    
     80240   400.0883      -926.32554      5280.7622      4322.6697    
     80250   391.12541     -926.02055      4520.3224      4326.2777    
     80260   388.01964     -925.87311      3161.126       4331.9314    
     80270   407.34218     -926.33398      1440.9408      4338.9871    
     80280   395.08029     -925.90135     -212.42985      4346.649     
     80290   391.92697     -925.7103      -1970.9858      4354.1219    
     80300   374.02716     -925.09101     -3538.8621      4360.591     
     80310   384.91615     -925.25568     -4713.2134      4365.3274    
     80320   409.63738     -925.78775     -5230.1363      4367.8018    
     80330   391.99707     -925.14516     -4957.7066      4367.801     
     80340   383.5424      -924.76726     -4370.2776      4365.4667    
     80350   422.82122     -925.7114      -3630.0712      4361.1056    
     80360   420.12898     -925.49334     -2292.1565      4355.123     
     80370   397.89961     -924.75192     -492.01712      4348.1746    
     80380   409.78421     -924.96394      1170.7224      4341.0996    
     80390   407.76131     -924.79334      2681.2072      4334.6808    
     80400   405.5957      -924.63007      3989.1613      4329.6088    
     80410   443.78893     -925.60403      4743.6309      4326.4528    
     80420   430.33179     -925.17224      5124.2563      4325.5433    
     80430   403.34122     -924.3954       4820.0683      4327.0098    
     80440   432.47403     -925.19515      3739.9307      4330.6769    
     80450   429.76132     -925.12552      2403.0835      4336.0402    
     80460   407.91568     -924.53578      949.78745      4342.4634    
     80470   419.47829     -924.87635     -608.22476      4349.2549    
     80480   410.10983     -924.63569     -2045.8437      4355.6876    
     80490   402.26543     -924.43525     -3292.0326      4361.088     
     80500   437.95199     -925.45164     -4317.964       4364.8742    
     80510   414.23349     -924.83379     -4606.7487      4366.6021    
     80520   391.44516     -924.24877     -4363.0657      4366.1505    
     80530   420.88477     -925.11912     -3891.0897      4363.6511    
     80540   421.28221     -925.19165     -2910.6854      4359.3741    
     80550   405.92706     -924.83005     -1549.4022      4353.8074    
     80560   416.16835     -925.17707     -176.57018      4347.6       
     80570   420.54273     -925.36055      1249.3036      4341.4128    
     80580   421.7559      -925.45751      2515.2103      4335.9042    
     80590   423.51353     -925.57703      3432.8409      4331.6455    
     80600   397.81415     -924.93478      3977.5688      4329.0418    
     80610   397.70803     -924.99904      4100.5336      4328.3174    
     80620   412.92463     -925.48953      3861.7421      4329.5052    
     80630   388.75095     -924.88288      3242.2841      4332.4699    
     80640   395.06106     -925.11203      2079.998       4336.8945    
     80650   426.59795     -926.03816      668.47796      4342.2332    
     80660   391.16517     -925.09877     -559.17628      4347.8356    
     80670   379.74325     -924.81232     -1822.1868      4353.109     
     80680   401.64485     -925.43839     -2937.0594      4357.4693    
     80690   393.23034     -925.21699     -3571.5389      4360.4118    
     80700   387.40463     -925.06455     -3631.442       4361.6568    
     80710   409.46222     -925.68599     -3295.4426      4361.1887    
     80720   424.03645     -926.10501     -2715.1237      4359.1848    
     80730   437.53082     -926.50929     -2137.7054      4355.9305    
     80740   411.06985     -925.81832     -1352.9758      4351.7285    
     80750   357.57492     -924.36765     -326.47823      4346.9646    
     80760   374.44569     -924.85053      689.05476      4342.1187    
     80770   403.4463      -925.65495      1680.6386      4337.6683    
     80780   394.71462     -925.40573      2599.8196      4334.0703    
     80790   416.28315     -926.00182      3150.2815      4331.7253    
     80800   409.86826     -925.82854      3451.2111      4330.8792    
     80810   381.24302     -925.04306      3321.0433      4331.6432    
     80820   400.08626     -925.57466      2594.143       4333.9299    
     80830   397.62857     -925.51225      1646.8133      4337.3989    
     80840   357.96299     -924.40887      805.455        4341.6114    
     80850   371.33874     -924.76153     -177.86448      4346.1514    
     80860   421.30541     -926.11437     -1168.7025      4350.5617    
     80870   423.26097     -926.13641     -1909.8813      4354.3883    
     80880   401.32772     -925.50641     -2415.8469      4357.2858    
     80890   419.10379     -925.9876      -2874.3415      4359.014     
     80900   419.0721      -925.98338     -2973.4071      4359.3851    
     80910   403.37325     -925.55712     -2718.5043      4358.3652    
     80920   388.03483     -925.14369     -2233.9065      4356.0882    
     80930   392.50935     -925.2779      -1632.0731      4352.7943    
     80940   386.87543     -925.12386     -815.97819      4348.787     
     80950   395.65069     -925.36308      106.61095      4344.4547    
     80960   397.17654     -925.39387      1118.6096      4340.2369    
     80970   383.68975     -925.00037      1944.6668      4336.5946    
     80980   395.59053     -925.30345      2468.8957      4333.8988    
     80990   394.43455     -925.23311      2975.1414      4332.3949    
     81000   392.153       -925.12163      3255.1613      4332.297     
     81010   416.85015     -925.74559      2982.1568      4333.7046    
     81020   429.02813     -926.0112       2387.5774      4336.4868    
     81030   396.53919     -925.03154      1605.2483      4340.3593    
     81040   405.05464     -925.17951      428.30416      4344.9363    
     81050   434.36128     -925.88156     -840.41682      4349.6722    
     81060   408.22502     -925.03723     -1760.9961      4353.9879    
     81070   396.54821     -924.59449     -2497.4668      4357.4424    
     81080   432.96043     -925.477       -3028.6654      4359.6949    
     81090   435.78134     -925.42694     -3130.9487      4360.5158    
     81100   428.30589     -925.1119      -3017.6532      4359.8601    
     81110   422.65854     -924.86552     -2697.6619      4357.7964    
     81120   374.01869     -923.43565     -1989.9963      4354.5025    
     81130   382.21136     -923.58024     -1128.0739      4350.315     
     81140   421.20591     -924.56128     -38.513781      4345.6574    
     81150   414.53368     -924.26937      1274.0208      4341.0485    
     81160   432.67404     -924.67561      2474.1008      4337.0894    
     81170   468.06242     -925.57534      3308.7497      4334.3213    
     81180   454.02905     -925.13823      3757.4489      4333.1243    
     81190   456.18866     -925.19388      3424.106       4333.6705    
     81200   446.32395     -924.95293      2771.529       4335.8095    
     81210   398.92112     -923.6919       2044.7565      4339.234     
     81220   398.19128     -923.72817      913.1382       4343.578     
     81230   445.90173     -925.11902     -391.8252       4348.3142    
     81240   433.52184     -924.86347     -1346.9483      4352.8494    
     81250   415.24796     -924.46219     -2148.0637      4356.7233    
     81260   427.53673     -924.9274      -2881.1942      4359.5566    
     81270   416.43146     -924.76156     -3266.6014      4361.0218    
     81280   412.94555     -924.81805     -3319.2685      4360.9452    
     81290   421.09875     -925.21371     -3042.2497      4359.3145    
     81300   388.30212     -924.46876     -2334.8178      4356.2835    
     81310   399.66381     -924.93455     -1572.0558      4352.183     
     81320   425.14895     -925.79417     -569.44197      4347.3947    
     81330   379.44636     -924.65909      851.90268      4342.4087    
     81340   390.68387     -925.07609      2040.4171      4337.8655    
     81350   436.7171      -926.45743      2771.5376      4334.3072    
     81360   395.86655     -925.42338      3446.3976      4332.0856    
     81370   386.488       -925.24684      3604.1105      4331.48      
     81380   432.59055     -926.61048      3146.9913      4332.5461    
     81390   401.62184     -925.83635      2560.3651      4335.0805    
     81400   370.83319     -925.05014      1652.7417      4338.7914    
     81410   418.6539      -926.43591      215.05488      4343.2334    
     81420   393.26926     -925.78169     -817.08489      4347.7733    
     81430   346.0908      -924.50356     -1615.3396      4351.9124    
     81440   370.47087     -925.1905      -2525.9743      4355.2573    
     81450   379.74882     -925.43965     -2923.4857      4357.4124    
     81460   379.84765     -925.42523     -2849.6427      4358.1923    
     81470   412.08164     -926.29937     -2666.51        4357.6259    
     81480   420.45739     -926.51794     -2302.9743      4355.8135    
     81490   378.44009     -925.34255     -1622.9365      4352.9464    
     81500   393.11243     -925.73983     -995.66256      4349.3348    
     81510   393.32544     -925.72585     -94.187665      4345.3003    
     81520   383.00159     -925.41391      918.16728      4341.2629    
     81530   384.83149     -925.42952      1822.9629      4337.6895    
     81540   401.74581     -925.85647      2564.1944      4334.9969    
     81550   410.02643     -926.04195      3076.1487      4333.524     
     81560   419.28911     -926.26324      3010.7915      4333.4841    
     81570   396.71004     -925.60929      2580.7501      4334.8484    
     81580   366.24471     -924.736        1916.7767      4337.4128    
     81590   384.7833      -925.20945      920.6675       4340.8548    
     81600   404.9495      -925.71102     -114.89335      4344.715     
     81610   379.54514     -924.93721     -824.74954      4348.5219    
     81620   380.12838     -924.87366     -1424.9324      4351.9274    
     81630   413.51547     -925.6989      -1852.8816      4354.6541    
     81640   430.56446     -926.0574      -2085.3797      4356.5024    
     81650   406.17539     -925.26649     -2180.2981      4357.3656    
     81660   407.83462     -925.19815     -2322.6171      4357.1921    
     81670   415.31324     -925.27769     -2171.5915      4355.938     
     81680   406.3867      -924.89102     -1734.7948      4353.6797    
     81690   412.09283     -924.89749     -1106.3682      4350.6284    
     81700   429.54981     -925.21178     -355.98115      4347.0824    
     81710   417.25351     -924.69016      637.28737      4343.4078    
     81720   430.07023     -924.86459      1642.2706      4340.0608    
     81730   431.70574     -924.72601      2458.2499      4337.5053    
     81740   417.88563     -924.17269      2713.0588      4336.1017    
     81750   426.76226     -924.26278      2513.7639      4335.9671    
     81760   438.85306     -924.45463      2251.1597      4337.0175    
     81770   416.69915     -923.71709      2011.1035      4339.1309    
     81780   436.33348     -924.16054      1319.6676      4342.1688    
     81790   462.30681     -924.79683      417.9819       4345.815     
     81800   437.55917     -924.0562      -272.03607      4349.6624    
     81810   437.35104     -924.02506     -1033.0124      4353.3701    
     81820   460.68046     -924.67193     -1799.5893      4356.5816    
     81830   455.64255     -924.56483     -2363.1274      4358.9432    
     81840   450.48888     -924.49177     -2745.866       4360.187     
     81850   436.8325      -924.21436     -2785.8553      4360.1424    
     81860   422.7642      -923.94628     -2490.1089      4358.7956    
     81870   435.54554     -924.44369     -2148.2423      4356.2792    
     81880   424.45981     -924.2988      -1521.2619      4352.7745    
     81890   388.21134     -923.4481      -528.67033      4348.5879    
     81900   414.84018     -924.33107      497.02635      4344.1768    
     81910   444.96662     -925.31839      1601.8509      4340.0306    
     81920   433.28435     -925.1439       2659.4815      4336.6632    
     81930   454.06397     -925.87295      3120.4011      4334.5392    
     81940   428.86226     -925.31997      3210.7894      4333.8824    
     81950   383.78898     -924.17968      2948.2979      4334.7286    
     81960   411.24797     -925.02312      2186.7128      4336.942     
     81970   432.89259     -925.69534      1316.7592      4340.181     
     81980   387.9564      -924.50608      515.50251      4344.0434    
     81990   402.57519     -924.9552      -492.60134      4348.136     
     82000   439.32098     -926.01726     -1382.9329      4351.9983    
     82010   411.23847     -925.28615     -1966.8442      4355.2167    
     82020   391.98886     -924.8         -2477.5678      4357.5035    
     82030   403.47298     -925.16448     -2922.6947      4358.6154    
     82040   394.37926     -924.95602     -2944.1984      4358.3605    
     82050   396.24723     -925.05086     -2590.0007      4356.7285    
     82060   403.89687     -925.30651     -1920.9929      4353.8911    
     82070   395.78607     -925.12253     -969.04725      4350.1711    
     82080   403.78212     -925.38433      33.251655      4346.0123    
     82090   409.22311     -925.5746       1046.0804      4341.8902    
     82100   412.02852     -925.6961       1945.37        4338.2765    
     82110   414.95547     -925.82876      2520.3399      4335.5824    
     82120   406.92332     -925.66736      2723.5019      4334.071     
     82130   388.70008     -925.2262       2711.7038      4333.8409    
     82140   392.45997     -925.39409      2423.9002      4334.8799    
     82150   407.91855     -925.88909      1881.0039      4337.0519    
     82160   392.11677     -925.51856      1216.7193      4340.1081    
     82170   377.73541     -925.1801       366.40371      4343.7331    
     82180   393.28348     -925.66589     -635.20015      4347.5257    
     82190   385.51976     -925.49631     -1420.8098      4351.0301    
     82200   383.81945     -925.48933     -2043.2526      4353.8695    
     82210   387.29569     -925.61931     -2472.5164      4355.7499    
     82220   393.7729      -925.83021     -2594.4115      4356.4726    
     82230   388.89572     -925.72395     -2400.4119      4355.9812    
     82240   393.52181     -925.8801      -2064.5041      4354.3624    
     82250   394.30751     -925.92838     -1581.9238      4351.7784    
     82260   376.23913     -925.44778     -759.16965      4348.4705    
     82270   377.54177     -925.49319      186.70117      4344.8207    
     82280   410.88535     -926.41828      988.00365      4341.266     
     82290   423.6912      -926.77695      1668.9998      4338.1845    
     82300   380.36551     -925.583        2314.1988      4335.9004    
     82310   372.27821     -925.36399      2514.2294      4334.6946    
     82320   392.16295     -925.91109      2313.8996      4334.6623    
     82330   396.33681     -926.01591      1938.2813      4335.7171    
     82340   378.19238     -925.49579      1480.5755      4337.6872    
     82350   364.2443      -925.07968      881.08615      4340.3549    
     82360   371.35495     -925.22612      177.9283       4343.4383    
     82370   391.73374     -925.71555     -419.66902      4346.618     
     82380   398.0325      -925.79309     -965.66107      4349.6064    
     82390   382.32085     -925.24577     -1388.0485      4352.1499    
     82400   401.85519     -925.66087     -1802.9488      4354.0406    
     82410   424.41903     -926.14226     -1998.1031      4355.0917    
     82420   425.92943     -926.03932     -1987.9774      4355.2082    
     82430   406.84923     -925.37587     -1819.1381      4354.3935    
     82440   406.89695     -925.25087     -1564.5213      4352.7244    
     82450   414.58756     -925.33835     -1088.6035      4350.3294    
     82460   408.42944     -925.04608     -347.46903      4347.4365    
     82470   389.51771     -924.40493      440.69899      4344.3884    
     82480   412.99368     -924.94071      997.46238      4341.5443    
     82490   429.77805     -925.29052      1489.8942      4339.1752    
     82500   407.90587     -924.58285      1975.8419      4337.5157    
     82510   406.16961     -924.44844      2124.1249      4336.778     
     82520   420.69959     -924.77282      1952.4372      4337.0332    
     82530   397.84243     -924.068        1805.0902      4338.2177    
     82540   404.43503     -924.18848      1504.4604      4340.2543    
     82550   445.33946     -925.26445      926.48562      4342.9989    
     82560   460.67898     -925.65155      317.62772      4346.192     
     82570   438.24998     -925.02216     -324.96326      4349.5483    
     82580   429.62207     -924.80124     -1177.5629      4352.754     
     82590   422.81142     -924.64646     -1887.7738      4355.4202    
     82600   426.79987     -924.80772     -2359.4744      4357.2104    
     82610   430.02581     -924.96848     -2617.2638      4357.896     
     82620   415.98843     -924.67011     -2513.2977      4357.3588    
     82630   404.17629     -924.44652     -2140.4722      4355.6426    
     82640   411.61379     -924.76919     -1659.8074      4352.9156    
     82650   414.28165     -924.97414     -886.08739      4349.4166    
     82660   413.25357     -925.0917       16.826399      4345.5037    
     82670   401.62302     -924.92604      925.18274      4341.6001    
     82680   387.35602     -924.6865       1764.1155      4338.1316    
     82690   397.79321     -925.13165      2398.5533      4335.4874    
     82700   414.22087     -925.7521       2668.1141      4333.9587    
     82710   395.51993     -925.39904      2699.5387      4333.6804    
     82720   387.30644     -925.32159      2466.9089      4334.6683    
     82730   414.9809      -926.23234      1886.137       4336.8132    
     82740   418.03621     -926.45411      1170.6962      4339.8568    
     82750   388.16142     -925.74218      446.14873      4343.4715    
     82760   375.40491     -925.47067     -378.59067      4347.3138    
     82770   405.74274     -926.37224     -1342.3582      4350.991     
     82780   395.60458     -926.13367     -2072.0311      4354.0629    
     82790   377.29695     -925.65333     -2668.0361      4356.172     
     82800   375.0337      -925.60366     -3029.6525      4357.0353    
     82810   362.33846     -925.25094     -2966.1276      4356.481     
     82820   348.93051     -924.86235     -2408.9068      4354.5392    
     82830   381.10193     -925.72443     -1648.2572      4351.4564    
     82840   399.27465     -926.18631     -605.56139      4347.5978    
     82850   395.04788     -926.02432      572.30517      4343.4506    
     82860   418.38999     -926.63018      1482.6552      4339.5531    
     82870   408.97637     -926.3326       2143.8444      4336.338     
     82880   377.19257     -925.42007      2432.2769      4334.1112    
     82890   372.71599     -925.26116      2475.422       4333.0175    
     82900   374.77437     -925.27178      2482.0412      4333.0884    
     82910   377.32819     -925.28423      2468.8637      4334.336     
     82920   410.57171     -926.14019      2044.0135      4336.7441    
     82930   416.59526     -926.2376       1263.9849      4340.1268    
     82940   410.40794     -926.00433      284.12375      4344.1288    
     82950   403.87662     -925.7652      -690.93685      4348.302     
     82960   389.69404     -925.31387     -1671.5573      4352.1827    
     82970   375.50313     -924.85573     -2476.3936      4355.3104    
     82980   390.86684     -925.20905     -2959.9484      4357.2991    
     82990   382.37498     -924.88984     -2926.0923      4357.918     
     83000   378.03251     -924.68027     -2579.7213      4357.1635    
     83010   413.99696     -925.5783      -2176.419       4355.1794    
     83020   424.88938     -925.77648     -1502.6907      4352.16      
     83030   405.98745     -925.15731     -421.38094      4348.4267    
     83040   414.71876     -925.31174      630.63799      4344.4674    
     83050   427.77326     -925.58817      1463.1937      4340.7725    
     83060   427.00436     -925.49258      2103.181       4337.7381    
     83070   433.96142     -925.62877      2458.8         4335.6669    
     83080   410.13949     -924.92758      2542.6822      4334.734     
     83090   385.25894     -924.205        2353.1861      4334.9896    
     83100   414.29614     -924.97864      1886.2282      4336.3558    
     83110   416.00813     -924.99413      1435.5396      4338.6386    
     83120   383.20642     -924.05521      990.09888      4341.6378    
     83130   398.35672     -924.4422       222.02735      4345.1369    
     83140   437.38625     -925.48513     -659.17276      4348.7899    
     83150   434.50816     -925.37303     -1299.1299      4352.1973    
     83160   421.70406     -925.00422     -1915.8743      4355.0382    
     83170   412.45321     -924.74547     -2508.794       4357.0125    
     83180   426.1025      -925.13668     -2892.5806      4357.8281    
     83190   414.06274     -924.83165     -2676.8004      4357.3034    
     83200   399.11002     -924.46145     -2090.4727      4355.5091    
     83210   406.72499     -924.7289      -1299.7993      4352.7007    
     83220   431.6321      -925.49649     -489.25274      4349.2319    
     83230   430.36912     -925.57036      375.47141      4345.4822    
     83240   420.91862     -925.45011      1146.0251      4341.8512    
     83250   417.83539     -925.53956      1572.2011      4338.6947    
     83260   394.93214     -925.09748      1796.5881      4336.2266    
     83270   368.86373     -924.56032      2097.8308      4334.5761    
     83280   372.03266     -924.81701      2345.331       4333.8917    
     83290   384.89773     -925.33085      2440.484       4334.3072    
     83300   388.09701     -925.56282      2194.8459      4335.8833    
     83310   403.85711     -926.13426      1613.8749      4338.5321    
     83320   414.80113     -926.56948      848.47526      4342.0111    
     83330   396.42995     -926.18307     -58.379281      4345.9798    
     83340   380.40744     -925.84277     -1127.9304      4350.0176    
     83350   382.8548      -925.99554     -2146.8093      4353.6247    
     83360   384.25214     -926.10363     -2858.6375      4356.3116    
     83370   377.45125     -925.97147     -3241.0117      4357.7111    
     83380   370.30224     -925.81591     -3210.4645      4357.6094    
     83390   377.38464     -926.0433      -2799.1836      4355.9784    
     83400   371.12495     -925.88746     -1956.0744      4352.98      
     83410   362.51526     -925.64897     -912.80148      4348.9732    
     83420   389.47683     -926.38174      71.358327      4344.4198    
     83430   391.99977     -926.42268      1077.2497      4339.7816    
     83440   372.92882     -925.85656      1990.575       4335.528     
     83450   364.68446     -925.57793      2754.3417      4332.1017    
     83460   379.13709     -925.91352      3266.1853      4329.8822    
     83470   390.88839     -926.16037      3502.7439      4329.147     
     83480   395.08589     -926.19259      3358.3714      4330.0477    
     83490   378.18962     -925.63569      2894.0192      4332.5728    
     83500   381.70956     -925.63846      2060.5323      4336.5541    
     83510   405.94385     -926.20054      863.23201      4341.6449    
     83520   398.03581     -925.8604      -436.36544      4347.3257    
     83530   391.86371     -925.56636     -1805.1641      4352.9926    
     83540   406.49783     -925.84367     -3062.7964      4357.9925    
     83550   393.25267     -925.34629     -3895.6547      4361.7071    
     83560   390.60062     -925.15162     -4358.2181      4363.6804    
     83570   387.83911     -924.95745     -4306.6303      4363.6354    
     83580   380.8165      -924.65113     -3725.1819      4361.5294    
     83590   394.29163     -924.91565     -2723.4114      4357.574     
     83600   434.46949     -925.92434     -1395.4137      4352.1925    
     83610   409.13961     -925.12746      288.74629      4345.9879    
     83620   411.03863     -925.10564      1744.1806      4339.7191    
     83630   437.48713     -925.77721      2825.8669      4334.0772    
     83640   404.07393     -924.80539      3799.8778      4329.6093    
     83650   395.71807     -924.54398      4473.4477      4326.8044    
     83660   421.21434     -925.23241      4658.3135      4326.0261    
     83670   412.63467     -924.98899      4414.4888      4327.4296    
     83680   430.03876     -925.48375      3642.4345      4330.9682    
     83690   452.99155     -926.15391      2425.3186      4336.3522    
     83700   400.67561     -924.7445       930.57569      4343.0733    
     83710   400.12829     -924.76571     -1068.4842      4350.4474    
     83720   402.03266     -924.84248     -2987.5181      4357.5582    
     83730   361.13678     -923.71442     -4276.2296      4363.4888    
     83740   391.45903     -924.55211     -5157.9651      4367.5558    
     83750   435.65702     -925.77882     -5442.3677      4369.2765    
     83760   414.88459     -925.22003     -4981.6921      4368.4483    
     83770   421.90375     -925.45191     -4244.7602      4365.1976    
     83780   426.32504     -925.62607     -3098.7567      4359.8273    
     83790   396.43189     -924.85006     -1460.3871      4352.8461    
     83800   416.41851     -925.45432      268.97301      4344.9893    
     83810   422.88476     -925.68401      2041.0214      4337.0692    
     83820   370.97676     -924.28189      3801.0263      4329.9323    
     83830   412.5614      -925.46844      4956.4912      4324.4044    
     83840   443.63281     -926.3787       5720.3808      4321.0816    
     83850   386.36333     -924.85255      6087.9613      4320.3761    
     83860   393.17196     -925.11227      5438.764       4322.4972    
     83870   416.89721     -925.84921      4026.2177      4327.2239    
     83880   386.16397     -925.07398      2450.9867      4333.9848    
     83890   378.2896      -924.91991      546.75437      4342.0751    
     83900   385.40222     -925.1633      -1449.7286      4350.6303    
     83910   377.41585     -924.96617     -3166.8491      4358.7172    
     83920   410.89619     -925.91275     -4691.8558      4365.4827    
     83930   405.17563     -925.77487     -5641.566       4370.1687    
     83940   384.70952     -925.23608     -5968.8388      4372.2624    
     83950   404.04365     -925.81228     -5864.7812      4371.5366    
     83960   409.47882     -926.0164      -5149.2726      4367.9943    
     83970   394.86601     -925.67395     -3746.3408      4361.9375    
     83980   412.44851     -926.23106     -1947.0035      4353.9927    
     83990   408.95664     -926.2087       121.40253      4344.9967    
     84000   378.25783     -925.42843      2224.2788      4335.918     
     84010   374.59205     -925.39283      3973.5635      4327.7405    
     84020   374.00695     -925.44383      5314.0478      4321.2998    
     84030   353.29677     -924.93732      6322.004       4317.2552    
     84040   371.71558     -925.52523      6673.4925      4316.0978    
     84050   396.54244     -926.31335      6292.1027      4318.0369    
     84060   387.52789     -926.18547      5126.6429      4322.9476    
     84070   380.56532     -926.12826      3261.9653      4330.3418    
     84080   376.96504     -926.16377      1105.4561      4339.406     
     84090   377.73004     -926.31253     -1082.1119      4349.1587    
     84100   369.83318     -926.20706     -3173.951       4358.5699    
     84110   372.64676     -926.38366     -5087.731       4366.6248    
     84120   387.01103     -926.87969     -6465.9558      4372.3846    
     84130   371.60504     -926.55181     -7014.2557      4375.153     
     84140   359.38106     -926.31175     -6969.8302      4374.6042    
     84150   353.29559     -926.23566     -6281.6016      4370.7198    
     84160   354.553       -926.35036     -4804.1517      4363.8051    
     84170   354.05705     -926.39191     -2676.4964      4354.5437    
     84180   356.56994     -926.48455     -222.47635      4343.9275    
     84190   349.12893     -926.25995      2355.0344      4333.1158    
     84200   365.43806     -926.65815      4634.7469      4323.3102    
     84210   372.31861     -926.76549      6539.5565      4315.5864    
     84220   356.71158     -926.23513      7813.7269      4310.8354    
     84230   349.7231      -925.93695      8173.9791      4309.6613    
     84240   372.22935     -926.44667      7559.5512      4312.263     
     84250   385.56983     -926.68635      6161.9264      4318.4106    
     84260   379.65738     -926.38261      4011.2659      4327.5021    
     84270   376.87447     -926.15131      1370.5074      4338.5838    
     84280   389.75199     -926.33358     -1357.1266      4350.4509    
     84290   389.86913     -926.14762     -3834.5605      4361.8255    
     84300   392.74522     -926.04354     -6006.0389      4371.504     
     84310   375.69682     -925.40312     -7582.1562      4378.4217    
     84320   371.814       -925.157       -8401.8742      4381.7836    
     84330   390.48243     -925.5631      -8361.6802      4381.1591    
     84340   390.41016     -925.47783     -7297.1455      4376.5465    
     84350   383.23347     -925.21829     -5393.6245      4368.4354    
     84360   389.62223     -925.3392      -3006.6526      4357.7215    
     84370   397.19768     -925.48303     -212.13827      4345.5492    
     84380   389.49539     -925.18665      2804.7069      4333.246     
     84390   397.13471     -925.30282      5502.0768      4322.2144    
     84400   406.11155     -925.45378      7479.5851      4313.6996    
     84410   402.45053     -925.26887      8700.6996      4308.6215    
     84420   419.2445      -925.67967      9087.4323      4307.5472    
     84430   427.02634     -925.87406      8510.7036      4310.6703    
     84440   418.40584     -925.64499      6833.7515      4317.7505    
     84450   419.26628     -925.69458      4185.1869      4328.0505    
     84460   399.0018      -925.15104      1203.3148      4340.3923    
     84470   377.47202     -924.54834     -1848.4977      4353.3957    
     84480   389.19934     -924.83848     -4760.6378      4365.6174    
     84490   403.00004     -925.16705     -7138.1421      4375.6593    
     84500   401.89758     -925.08561     -8576.1889      4382.3664    
     84510   392.92755     -924.80395     -9039.1672      4385.0141    
     84520   395.58615     -924.86537     -8563.7902      4383.3572    
     84530   419.87552     -925.54554     -7272.0805      4377.6126    
     84540   414.78488     -925.42306     -5146.67        4368.4112    
     84550   391.44089     -924.79119     -2396.6574      4356.78      
     84560   409.702       -925.29473      399.75536      4344.0219    
     84570   433.72961     -925.94252      3130.1571      4331.4697    
     84580   398.29056     -924.93288      5884.9749      4320.414     
     84590   389.2322      -924.65402      8049.5777      4312.1036    
     84600   422.28877     -925.55628      9181.4652      4307.5112    
     84610   431.56617     -925.83207      9220.7423      4307.1489    
     84620   428.04296     -925.79872      8205.5563      4311.0384    
     84630   406.64586     -925.30376      6302.7021      4318.7312    
     84640   380.68867     -924.68867      3703.4049      4329.3717    
     84650   378.99551     -924.73218      658.85048      4341.7711    
     84660   375.89315     -924.70927     -2336.5965      4354.5239    
     84670   391.49006     -925.18616     -4952.7011      4366.2131    
     84680   399.55884     -925.45226     -6915.1783      4375.5845    
     84690   395.34958     -925.39078     -8151.046       4381.6812    
     84700   413.588       -925.98287     -8698.7703      4383.8915    
     84710   413.89383     -926.11865     -8298.4654      4381.9628    
     84720   388.48766     -925.56935     -6960.8818      4376.0983    
     84730   386.50543     -925.67753     -4975.0475      4366.951     
     84740   393.0144      -926.01772     -2467.3982      4355.4947    
     84750   377.73733     -925.72963      453.30671      4342.9457    
     84760   384.24092     -926.01777      3172.288       4330.6708    
     84770   371.9863      -925.7607       5599.3087      4319.9432    
     84780   363.01562     -925.57157      7556.991       4311.8702    
     84790   387.64736     -926.3143       8615.6077      4307.3153    
     84800   382.39783     -926.23894      8780.2892      4306.7448    
     84810   367.7375      -925.91096      8013.6637      4310.2177    
     84820   376.613       -926.23728      6326.3363      4317.378     
     84830   373.02547     -926.20431      3894.8695      4327.4554    
     84840   365.04775     -926.02113      1040.2596      4339.3359    
     84850   373.9555      -926.26987     -1888.486       4351.6936    
     84860   371.36914     -926.16519     -4456.7398      4363.1545    
     84870   358.86578     -925.75862     -6442.0399      4372.4952    
     84880   382.07735     -926.32922     -7833.0513      4378.754     
     84890   384.23119     -926.30889     -8284.7597      4381.281     
     84900   397.33411     -926.59986     -7959.7052      4379.8605    
     84910   390.68988     -926.34454     -6815.1057      4374.6767    
     84920   365.6786      -925.57382     -4923.518       4366.3096    
     84930   378.79812     -925.8329      -2634.8532      4355.6835    
     84940   399.86637     -926.26569     -88.082553      4343.9116    
     84950   362.08729     -925.02671      2734.29        4332.219     
     84960   356.52225     -924.66018      5158.6309      4321.8957    
     84970   389.72852     -925.33554      7151.5176      4314.0546    
     84980   406.00424     -925.54162      8555.4863      4309.5814    
     84990   433.04721     -926.08851      8786.3983      4309.0642    
     85000   415.47943     -925.46023      8008.5303      4312.5915    
     85010   401.86696     -925.00102      6310.5736      4319.7901    
     85020   435.53184     -925.88211      3733.865       4329.8655    
     85030   419.65072     -925.39997      868.22197      4341.6382    
     85040   377.27373     -924.18232     -1884.3776      4353.774     
     85050   399.8393      -924.75369     -4439.1745      4364.9649    
     85060   415.7712      -925.13341     -6374.0242      4374.0084    
     85070   406.20661     -924.81856     -7576.1087      4379.9837    
     85080   422.97563     -925.25975     -8158.0459      4382.3187    
     85090   418.6969      -925.14681     -7817.6407      4380.7732    
     85100   394.88203     -924.51322     -6555.8264      4375.549     
     85110   433.2587      -925.61968     -4857.665       4367.2727    
     85120   427.59503     -925.51186     -2627.8263      4356.8075    
     85130   381.05024     -924.26144     -28.050782      4345.2418    
     85140   390.77875     -924.55024      2583.6963      4333.8075    
     85150   413.51723     -925.18298      5028.1146      4323.7198    
     85160   400.68284     -924.8257       6988.7339      4316.0817    
     85170   409.4754      -925.08154      8085.407       4311.7448    
     85180   427.89867     -925.63044      8325.1119      4311.1727    
     85190   434.23702     -925.88168      7600.239       4314.4307    
     85200   413.16172     -925.40239      5973.7439      4321.1574    
     85210   401.9853      -925.20474      3597.6655      4330.5864    
     85220   417.75997     -925.75307      727.1103       4341.6059    
     85230   395.60709     -925.23575     -1952.5881      4352.8914    
     85240   372.89034     -924.68266     -4246.1413      4363.176     
     85250   381.73336     -924.98752     -6064.1838      4371.3748    
     85260   410.05044     -925.84001     -7372.2299      4376.6283    
     85270   377.5659      -925.01607     -7693.9375      4378.3575    
     85280   371.63493     -924.93594     -7165.9139      4376.4351    
     85290   392.66125     -925.60919     -5881.282       4371.159     
     85300   407.39657     -926.11102     -4102.6547      4363.1822    
     85310   414.7132      -926.41081     -2004.2348      4353.3914    
     85320   393.18555     -925.90404      363.49379      4342.8135    
     85330   367.47197     -925.26007      2758.4932      4332.5675    
     85340   386.93812     -925.85059      4835.1388      4323.7518    
     85350   409.76661     -926.53833      6435.6001      4317.2976    
     85360   370.18197     -925.49935      7458.4045      4313.9027    
     85370   385.99629     -926.00961      7301.0311      4313.9626    
     85380   407.43047     -926.69578      6299.9471      4317.3763    
     85390   367.41396     -925.68456      4858.2894      4323.6647    
     85400   359.12866     -925.54504      2758.294       4332.1231    
     85410   363.73735     -925.74265      312.82802      4341.7703    
     85420   348.92461     -925.37216     -1955.7344      4351.4712    
     85430   370.0363      -925.97429     -3829.4024      4360.161     
     85440   400.2931      -926.82051     -5192.4007      4366.9622    
     85450   375.32761     -926.1351      -6008.945       4371.2439    
     85460   370.97149     -926.02526     -6423.5877      4372.6353    
     85470   392.00706     -926.62353     -6164.9156      4370.9863    
     85480   373.84011     -926.13225     -4967.3491      4366.4787    
     85490   376.67366     -926.21516     -3407.3193      4359.7031    
     85500   381.03814     -926.3198      -1741.9264      4351.4295    
     85510   362.11247     -925.74993      270.37527      4342.4858    
     85520   378.2722      -926.12078      2365.4527      4333.8177    
     85530   398.78682     -926.57787      4162.9927      4326.3836    
     85540   386.74819     -926.11437      5400.1439      4320.9845    
     85550   380.05799     -925.7954       5929.5548      4318.1485    
     85560   370.21788     -925.38313      5965.4398      4318.0899    
     85570   363.34049     -925.04847      5461.5293      4320.7838    
     85580   383.22832     -925.44505      4252.0716      4325.9554    
     85590   394.73139     -925.59569      2674.0537      4333.0355    
     85600   397.43357     -925.50101      888.66434      4341.2763    
     85610   407.79107     -925.62212     -934.57011      4349.8393    
     85620   406.45005     -925.42473     -2677.8593      4357.8669    
     85630   413.50195     -925.47485     -4235.012       4364.5409    
     85640   435.36136     -925.95481     -5329.2904      4369.1463    
     85650   394.17184     -924.71273     -5648.7204      4371.2001    
     85660   397.64454     -924.7359      -5484.4454      4370.5662    
     85670   441.89553     -925.90281     -4842.5471      4367.3627    
     85680   416.1407      -925.1461      -3531.1632      4361.9463    
     85690   390.10615     -924.39528     -1937.5689      4354.9607    
     85700   416.46428     -925.09603     -368.22577      4347.1743    
     85710   403.88262     -924.70962      1384.1283      4339.3529    
     85720   400.60707     -924.58016      2992.3271      4332.3016    
     85730   416.77792     -924.99023      4254.4845      4326.7478    
     85740   404.38323     -924.61382      5173.2377      4323.2506    
     85750   416.33227     -924.92576      5493.1787      4322.1909    
     85760   443.58532     -925.68329      5085.0473      4323.6742    
     85770   406.8391      -924.686        4353.4266      4327.4994    
     85780   397.29833     -924.45514      3092.5036      4333.289     
     85790   417.65396     -925.05361      1406.4356      4340.4412    
     85800   425.67158     -925.31278     -315.29967      4348.1711    
     85810   436.48477     -925.66077     -1995.9144      4355.6667    
     85820   440.7679      -925.85176     -3538.7473      4362.1388    
     85830   395.0319      -924.67093     -4665.7397      4366.8784    
     85840   396.73839     -924.81568     -5429.7612      4369.3631    
     85850   416.93128     -925.49656     -5597.5687      4369.266     
     85860   378.58102     -924.5639      -4901.5625      4366.557     
     85870   380.79187     -924.75537     -3764.1394      4361.5863    
     85880   405.99703     -925.58794     -2319.8613      4354.9265    
     85890   393.46306     -925.37063     -490.17425      4347.2965    
     85900   391.61019     -925.43839      1347.1279      4339.5587    
     85910   399.65097     -925.77566      2887.219       4332.5625    
     85920   387.49245     -925.54398      4089.2894      4327.0119    
     85930   394.82906     -925.8527       4879.7956      4323.4346    
     85940   381.64863     -925.58878      5310.9868      4322.1687    
     85950   393.82126     -926.02702      5067.0546      4323.3662    
     85960   418.49455     -926.82178      4132.6884      4326.8831    
     85970   384.4828      -925.98742      2920.2738      4332.2792    
     85980   362.49588     -925.46578      1434.6644      4338.9719    
     85990   391.09471     -926.32772     -368.97778      4346.2511    
     86000   388.48594     -926.30651     -2065.8006      4353.2834    
     86010   364.26845     -925.66684     -3505.6812      4359.2747    
     86020   370.34654     -925.85201     -4561.7127      4363.557     
     86030   365.43246     -925.71811     -5056.389       4365.6536    
     86040   371.4194      -925.87749     -5048.8667      4365.3512    
     86050   387.4748      -926.3109      -4416.0616      4362.6908    
     86060   360.83467     -925.54958     -3148.4447      4358.0087    
     86070   371.22869     -925.80251     -1713.7159      4351.9156    
     86080   395.01388     -926.40609     -171.68074      4345.1106    
     86090   381.12779     -925.94948      1531.6981      4338.3349    
     86100   384.59033     -925.96434      2957.1935      4332.3648    
     86110   408.52634     -926.53981      3951.5277      4327.845     
     86120   389.12586     -925.91362      4622.8384      4325.2219    
     86130   399.51404     -926.12457      4634.6348      4324.763     
     86140   400.61483     -926.08281      4077.964       4326.4493    
     86150   358.61358     -924.84983      3282.1007      4330.0152    
     86160   381.63168     -925.41832      2052.1425      4335.0603    
     86170   399.57088     -925.83168      786.56838      4341.017     
     86180   377.08809     -925.12334     -469.89192      4347.2872    
     86190   400.13078     -925.6819      -1988.738       4353.2627    
     86200   402.93539     -925.68275     -3137.0418      4358.2582    
     86210   368.82896     -924.67261     -3791.3589      4361.7427    
     86220   403.65267     -925.58882     -4306.5323      4363.4017    
     86230   414.06696     -925.84127     -4270.241       4363.0295    
     86240   375.6337      -924.75326     -3516.9313      4360.6751    
     86250   411.19399     -925.72629     -2544.8002      4356.6979    
     86260   433.9939      -926.35247     -1352.1711      4351.582     
     86270   381.15246     -924.88326      81.112747      4345.9104    
     86280   410.51104     -925.69497      1165.7642      4340.3362    
     86290   430.37838     -926.24493      2251.8027      4335.3837    
     86300   375.07136     -924.71092      3356.1223      4331.5533    
     86310   390.11618     -925.12829      3723.6321      4329.309     
     86320   414.77291     -925.81195      3607.187       4328.8141    
     86330   378.22208     -924.79886      3375.1609      4330.0118    
     86340   384.29043     -924.96717      2719.0075      4332.7617    
     86350   400.95715     -925.42193      1826.1724      4336.7529    
     86360   391.74377     -925.15154      899.9255       4341.5691    
     86370   428.20157     -926.1492      -274.4273       4346.7583    
     86380   417.28789     -925.83632     -1349.5665      4351.7823    
     86390   379.73919     -924.7878      -2282.2015      4356.1362    
     86400   409.96673     -925.61917     -3258.8817      4359.3723    
     86410   417.47014     -925.8232      -3737.9851      4361.0614    
     86420   377.78467     -924.72383     -3567.3185      4360.997     
     86430   391.96311     -925.11953     -3241.53        4359.2535    
     86440   411.48186     -925.66093     -2561.6275      4356.0136    
     86450   397.51805     -925.27204     -1357.3643      4351.6261    
     86460   424.32538     -926.01867     -284.01786      4346.642     
     86470   414.8302      -925.76272      741.80385      4341.5816    
     86480   380.45243     -924.8182       1830.4621      4336.9316    
     86490   392.08529     -925.14621      2715.8171      4333.1846    
     86500   399.04868     -925.34012      3221.8132      4330.7356    
     86510   389.96986     -925.089        3366.8489      4329.8077    
     86520   395.41542     -925.24173      3170.6712      4330.4534    
     86530   390.77873     -925.11233      2748.7619      4332.5736    
     86540   391.59543     -925.13052      2132.9305      4335.9639    
     86550   415.59204     -925.78835      1215.8739      4340.3211    
     86560   426.97316     -926.09916      123.97235      4345.2158    
     86570   417.07977     -925.82876     -942.59101      4350.1415    
     86580   415.30313     -925.7948      -1941.4329      4354.5942    
     86590   396.27004     -925.28823     -2773.727       4358.1083    
     86600   386.60758     -925.04452     -3383.9794      4360.2959    
     86610   390.18188     -925.16796     -3671.477       4360.8809    
     86620   390.91943     -925.21376     -3532.944       4359.7427    
     86630   383.17015     -925.0231      -2913.3165      4356.9653    
     86640   383.63154     -925.05411     -1953.2473      4352.8525    
     86650   405.32595     -925.66838     -851.38896      4347.8641    
     86660   404.28787     -925.64884      450.75905      4342.5332    
     86670   390.81447     -925.28095      1859.4393      4337.4732    
     86680   411.39762     -925.85724      2898.8116      4333.3194    
     86690   420.83343     -926.132        3469.9632      4330.5453    
     86700   389.30253     -925.28038      3663.2028      4329.4082    
     86710   387.29069     -925.25251      3465.8887      4329.9822    
     86720   394.82385     -925.49052      3034.3795      4332.1707    
     86730   383.70541     -925.20657      2288.8845      4335.7598    
     86740   421.93021     -926.2942       1111.9103      4340.3879    
     86750   410.97591     -926.02206     -53.873413      4345.5186    
     86760   367.87521     -924.85585     -1157.458       4350.603     
     86770   399.52797     -925.75785     -2409.9256      4355.1081    
     86780   413.8005      -926.17914     -3289.4785      4358.4658    
     86790   359.73691     -924.70302     -3547.1415      4360.2765    
     86800   381.17216     -925.31825     -3728.63        4360.3975    
     86810   403.03666     -925.94124     -3409.3253      4358.7757    
     86820   365.40439     -924.90729     -2405.8406      4355.5854    
     86830   391.0546      -925.62145     -1441.9079      4351.2812    
     86840   410.88092     -926.16453     -385.32534      4346.3376    
     86850   371.86281     -925.06556      985.98426      4341.2715    
     86860   410.05975     -926.10255      2061.4916      4336.698     
     86870   438.04638     -926.85414      2983.1039      4333.1264    
     86880   396.1012      -925.676        3621.0695      4330.9742    
     86890   407.39489     -925.98701      3415.827       4330.5008    
     86900   401.66678     -925.8301       2883.8957      4331.6228    
     86910   347.44553     -924.32157      2441.4054      4334.1026    
     86920   377.28916     -925.13227      1534.9448      4337.6986    
     86930   401.65369     -925.76776      455.17118      4341.9967    
     86940   375.31651     -924.98264     -399.85755      4346.5054    
     86950   402.60859     -925.67479     -1330.4178      4350.8048    
     86960   417.26408     -926.00186     -2154.4605      4354.4652    
     86970   381.22695     -924.92053     -2646.7762      4357.1083    
     86980   400.31294     -925.36555     -3095.311       4358.4892    
     86990   426.37849     -925.99387     -3183.1423      4358.4143    
     87000   384.56389     -924.74124     -2545.8216      4356.8679    
     87010   391.89884     -924.85349     -1796.6536      4354.1332    
     87020   435.32898     -925.95288     -1054.1149      4350.5682    
     87030   416.89147     -925.33477      90.146736      4346.552     
     87040   415.45728     -925.20026      1092.6756      4342.6016    
     87050   429.87939     -925.50836      1750.9882      4339.1815    
     87060   428.49923     -925.38915      2229.1183      4336.6025    
     87070   411.87952     -924.86154      2581.8822      4335.0872    
     87080   400.2316      -924.48124      2464.6901      4334.7769    
     87090   397.6858      -924.35416      2107.7805      4335.6213    
     87100   403.91975     -924.46784      1756.5998      4337.4596    
     87110   410.37747     -924.58558      1233.5594      4340.114     
     87120   401.03564     -924.26281      696.07048      4343.3462    
     87130   424.02984     -924.83693     -5.915337       4346.8934    
     87140   447.12264     -925.41593     -783.26717      4350.4296    
     87150   447.52384     -925.38501     -1534.2567      4353.59      
     87160   419.72782     -924.59422     -2060.1886      4356.0292    
     87170   421.85415     -924.65015     -2455.792       4357.4935    
     87180   444.16804     -925.28586     -2601.2239      4357.8027    
     87190   417.25264     -924.57788     -2259.5069      4356.9045    
     87200   419.00566     -924.68782     -1860.7218      4354.9456    
     87210   433.49249     -925.17705     -1323.7215      4352.125     
     87220   412.43997     -924.70735     -442.65776      4348.7117    
     87230   404.12201     -924.60929      345.68443      4345.1069    
     87240   424.17741     -925.32771      816.76339      4341.6721    
     87250   391.5033      -924.60174      1470.9421      4338.6519    
     87260   383.34719     -924.55144      2059.0658      4336.3398    
     87270   422.49972     -925.83061      2183.2134      4334.9884    
     87280   387.93676     -925.06694      2282.1292      4334.6743    
     87290   363.44431     -924.5497       2209.1325      4335.4328    
     87300   416.44323     -926.17337      1758.2263      4337.2157    
     87310   412.43065     -926.21222      1329.512       4339.8306    
     87320   390.37166     -925.73034      680.10504      4343.0626    
     87330   412.82165     -926.47127     -247.44509      4346.6022    
     87340   383.91715     -925.76932     -995.28254      4350.0331    
     87350   368.64331     -925.41789     -1755.7821      4352.9902    
     87360   402.47517     -926.41473     -2470.429       4355.1148    
     87370   387.48185     -926.046       -2634.4371      4356.0936    
     87380   377.12191     -925.79517     -2562.2831      4355.8344    
     87390   398.87711     -926.42894     -2434.2347      4354.3671    
     87400   367.33302     -925.57419     -1939.0931      4351.7719    
     87410   338.81341     -924.78423     -1130.0801      4348.2851    
     87420   379.04007     -925.88103     -190.26793      4344.2842    
     87430   382.45081     -925.93476      900.18287      4340.2181    
     87440   381.8141      -925.86745      1839.5043      4336.5873    
     87450   394.07629     -926.15095      2526.8502      4333.8267    
     87460   378.24623     -925.64885      3027.1209      4332.2599    
     87470   400.61491     -926.20609      3072.3678      4332.1039    
     87480   404.18385     -926.2389       2819.2431      4333.3854    
     87490   383.04023     -925.58985      2288.2664      4335.9853    
     87500   404.51893     -926.12196      1399.5996      4339.6502    
     87510   418.00528     -926.42858      377.81513      4343.9727    
     87520   379.72534     -925.30048     -639.03823      4348.4786    
     87530   379.78678     -925.23355     -1801.8843      4352.6769    
     87540   394.44188     -925.55788     -2699.0005      4356.0346    
     87550   372.06427     -924.84666     -3130.4309      4358.1317    
     87560   391.7459      -925.29858     -3239.3959      4358.7562    
     87570   404.13638     -925.53848     -2931.727       4357.8642    
     87580   384.64954     -924.89495     -2374.4467      4355.5966    
     87590   414.01567     -925.60784     -1705.3134      4352.2153    
     87600   420.59266     -925.68561     -639.00341      4348.0569    
     87610   388.80746     -924.7082       528.35586      4343.6151    
     87620   407.07437     -925.12369      1462.8797      4339.4276    
     87630   420.74337     -925.41013      2367.2551      4335.9433    
     87640   406.89927     -924.94349      3157.48        4333.5818    
     87650   444.98082     -925.93525      3296.6437      4332.6853    
     87660   430.5245      -925.49024      3078.2024      4333.3327    
     87670   383.8537      -924.17093      2581.0133      4335.4221    
     87680   422.20625     -925.2178       1625.083       4338.7128    
     87690   432.27437     -925.48591      566.3307       4342.7722    
     87700   378.37169     -923.98456     -356.67679      4347.1139    
     87710   409.50832     -924.84332     -1406.3111      4351.2859    
     87720   431.87094     -925.46014     -2093.1512      4354.8147    
     87730   390.38235     -924.31284     -2401.7146      4357.3736    
     87740   401.75743     -924.63656     -2766.6487      4358.7927    
     87750   432.60089     -925.50614     -2908.0159      4358.9114    
     87760   418.03057     -925.12905     -2571.0778      4357.6735    
     87770   408.75227     -924.90881     -2000.4668      4355.2297    
     87780   412.81664     -925.06379     -1328.5126      4351.8471    
     87790   399.2518      -924.72589     -348.06798      4347.8581    
     87800   430.982       -925.64644      615.50501      4343.7118    
     87810   436.12279     -925.83775      1586.3493      4339.8672    
     87820   403.98918     -924.99481      2405.6724      4336.775     
     87830   424.81496     -925.62193      2673.4611      4334.798     
     87840   412.17221     -925.3183       2766.8458      4334.0806    
     87850   375.26131     -924.32984      2597.1872      4334.6602    
     87860   386.84814     -924.67245      1994.6382      4336.4491    
     87870   412.67499     -925.40261      1341.6576      4339.1841    
     87880   401.98776     -925.11755      780.04179      4342.5669    
     87890   410.72418     -925.37293     -77.031312      4346.3161    
     87900   414.36033     -925.48905     -1044.533       4350.0361    
     87910   388.01215     -924.7702      -1715.3441      4353.2867    
     87920   420.05143     -925.67435     -2242.9884      4355.7375    
     87930   417.79253     -925.63284     -2395.9104      4357.1482    
     87940   387.98891     -924.83191     -2333.0786      4357.4361    
     87950   412.44117     -925.53891     -2282.3258      4356.6191    
     87960   432.538       -926.135       -1986.1152      4354.7324    
     87970   398.90724     -925.2498      -1353.1993      4351.9219    
     87980   387.77207     -924.9896      -697.06685      4348.4727    
     87990   389.19867     -925.07091      32.832851      4344.7002    
     88000   389.29241     -925.10717      940.26912      4340.9542    
     88010   407.08632     -925.63131      1765.4839      4337.6504    
     88020   411.69903     -925.79445      2373.8282      4335.1728    
     88030   384.31363     -925.07122      2812.3018      4333.8106    
     88040   395.02328     -925.40584      2751.5229      4333.7535    
     88050   400.84825     -925.60523      2361.9379      4334.9854    
     88060   389.20438     -925.31985      1849.3228      4337.3346    
     88070   394.07951     -925.49103      1176.2152      4340.5633    
     88080   406.35713     -925.86609      258.78759      4344.3533    
     88090   401.52087     -925.76815     -642.37214      4348.2852    
     88100   388.84469     -925.45096     -1415.8234      4351.9373    
     88110   396.74376     -925.70402     -2099.4353      4354.9374    
     88120   398.25137     -925.77836     -2518.7443      4356.9671    
     88130   412.07262     -926.2023      -2807.7731      4357.8137    
     88140   395.08146     -925.77807     -2761.2514      4357.3472    
     88150   377.81208     -925.34818     -2466.3805      4355.5797    
     88160   371.12977     -925.20445     -1937.2896      4352.6496    
     88170   376.46427     -925.38346     -1134.8558      4348.8084    
     88180   375.84103     -925.3838      -48.740115      4344.4374    
     88190   377.36884     -925.42897      1011.8372      4340.0367    
     88200   399.1881      -926.02622      1895.1805      4336.0999    
     88210   402.94608     -926.11728      2756.9901      4333.0514    
     88220   382.22546     -925.52719      3450.0025      4331.2916    
     88230   393.93843     -925.83364      3523.4823      4331.129     
     88240   423.19281     -926.62569      3050.9389      4332.6083    
     88250   399.8846      -925.96274      2388.7173      4335.5325    
     88260   386.59501     -925.57946      1409.8475      4339.5912    
     88270   389.04996     -925.62232      239.30134      4344.3373    
     88280   379.90983     -925.32754     -969.71785      4349.228     
     88290   391.72566     -925.59779     -2122.2252      4353.6936    
     88300   397.96479     -925.69745     -2926.7647      4357.1946    
     88310   378.54565     -925.07448     -3332.0537      4359.3429    
     88320   384.21797     -925.13635     -3498.7333      4359.9274    
     88330   406.56806     -925.64316     -3243.3007      4358.8689    
     88340   408.2809      -925.5673      -2602.1839      4356.28      
     88350   392.87865     -925.01418     -1692.327       4352.4566    
     88360   396.9958      -924.99709     -546.51282      4347.8251    
     88370   402.67132     -925.01073      818.85517      4342.928     
     88380   422.23261     -925.40491      2020.4648      4338.3936    
     88390   434.55571     -925.60345      2857.3978      4334.782     
     88400   412.36606     -924.86426      3289.0527      4332.4888    
     88410   431.25958     -925.28646      3314.9398      4331.7223    
     88420   446.73732     -925.63288      3171.3924      4332.5131    
     88430   394.90887     -924.13533      2888.5836      4334.8099    
     88440   413.81677     -924.61577      1870.3754      4338.4621    
     88450   444.63732     -925.42972      607.35606      4343.0262    
     88460   409.33061     -924.42255     -416.82916      4347.9355    
     88470   394.01967     -923.97733     -1525.0821      4352.6903    
     88480   420.34915     -924.68856     -2585.0499      4356.7666    
     88490   398.80364     -924.07205     -3131.4439      4359.6742    
     88500   417.42296     -924.57964     -3429.8502      4361.1243    
     88510   441.05707     -925.23926     -3305.3854      4360.9709    
     88520   424.10724     -924.79489     -2699.9057      4359.2627    
     88530   428.04378     -924.9508      -2023.7918      4356.2588    
     88540   444.35946     -925.47791     -1291.9259      4352.2719    
     88550   400.87421     -924.36426     -148.8402       4347.6618    
     88560   416.7426      -924.90965      924.33441      4342.9445    
     88570   465.23845     -926.40262      1770.5723      4338.621     
     88580   411.23258     -925.09043      2628.2231      4335.1059    
     88590   375.01313     -924.27289      3001.119       4332.7857    
     88600   400.72477     -925.18203      2876.3284      4331.8441    
     88610   397.88745     -925.30633      2805.2005      4332.2622    
     88620   380.90038     -925.02247      2506.8713      4334.0074    
     88630   400.53599     -925.73896      1709.137       4336.9435    
     88640   395.7862      -925.76143      869.76252      4340.7315    
     88650   383.58549     -925.54537      28.560353      4344.9887    
     88660   405.50162     -926.25546     -1092.7407      4349.3076    
     88670   373.20438     -925.4356      -2014.8026      4353.179     
     88680   348.98727     -924.80626     -2648.4369      4356.1584    
     88690   400.78378     -926.26772     -3136.7921      4357.9209    
     88700   409.70814     -926.53429     -3102.8377      4358.2342    
     88710   379.76621     -925.72042     -2611.2464      4357.0916    
     88720   403.77681     -926.40132     -2102.6729      4354.6881    
     88730   412.64808     -926.66125     -1356.6796      4351.263     
     88740   381.74561     -925.81539     -416.93755      4347.1576    
     88750   383.91515     -925.87982      334.84775      4342.7928    
     88760   383.58329     -925.86438      1069.1373      4338.529     
     88770   347.85959     -924.85108      2042.4907      4334.7279    
     88780   368.04785     -925.37292      2670.7391      4331.8271    
     88790   395.35058     -926.076        3024.4759      4330.139     
     88800   364.15989     -925.14853      3419.8536      4329.8653    
     88810   380.32197     -925.5317       3255.4464      4331.1873    
     88820   419.93457     -926.55521      2540.0324      4334.0591    
     88830   400.55699     -925.94367      1652.4496      4338.1905    
     88840   386.35256     -925.48132      533.13424      4343.184     
     88850   410.67881     -926.08251     -827.42853      4348.5238    
     88860   399.54162     -925.6944      -1910.4012      4353.593     
     88870   379.94081     -925.07329     -2707.8498      4357.8654    
     88880   396.61466     -925.45377     -3381.4183      4360.9337    
     88890   418.32404     -925.97109     -3794.9315      4362.4537    
     88900   407.26735     -925.58792     -3754.8494      4362.2033    
     88910   392.73443     -925.11959     -3303.2151      4360.1642    
     88920   393.85544     -925.08667     -2556.1546      4356.5139    
     88930   402.92691     -925.2697      -1541.9579      4351.5814    
     88940   411.30477     -925.43015     -318.00318      4345.8256    
     88950   395.38968     -924.91376      1178.5021      4339.8213    
     88960   387.88505     -924.62634      2539.2519      4334.2556    
     88970   395.77871     -924.75701      3592.8681      4329.7753    
     88980   411.38946     -925.09681      4308.8033      4326.8965    
     88990   416.39214     -925.14643      4715.2722      4325.9913    
     89000   420.84162     -925.19257      4630.7428      4327.2873    
     89010   434.82098     -925.51675      3832.6159      4330.7877    
     89020   443.38035     -925.7067       2483.5104      4336.1796    
     89030   424.56448     -925.15217      880.37588      4342.8864    
     89040   412.72745     -924.7991      -928.80918      4350.1804    
     89050   409.92903     -924.69434     -2684.3534      4357.222     
     89060   412.00083     -924.72306     -4071.7898      4363.1704    
     89070   421.70795     -924.96969     -4966.741       4367.3279    
     89080   418.03393     -924.85942     -5267.8292      4369.219     
     89090   403.30786     -924.46083     -5117.9514      4368.6319    
     89100   396.24905     -924.28724     -4550.8187      4365.5796    
     89110   416.15954     -924.87346     -3478.8962      4360.2846    
     89120   406.44351     -924.64632     -1713.5605      4353.2278    
     89130   395.1615      -924.37707      372.50479      4345.2068    
     89140   427.56304     -925.32411      2211.6349      4337.1758    
     89150   447.21274     -925.93895      3853.8952      4330.0157    
     89160   426.63621     -925.46955      5226.617       4324.5184    
     89170   419.72094     -925.40856      5855.0411      4321.3448    
     89180   406.60274     -925.20276      5784.0466      4320.8437    
     89190   377.67641     -924.55996      5238.5472      4323.057     
     89200   403.54469     -925.44049      4016.0727      4327.787     
     89210   413.22455     -925.87666      2387.4246      4334.5382    
     89220   390.81686     -925.41075      501.3096       4342.6005    
     89230   391.37241     -925.55975     -1556.8825      4351.1121    
     89240   387.06339     -925.5539      -3389.8232      4359.1138    
     89250   366.54634     -925.07172     -4840.5489      4365.709     
     89260   391.82292     -925.84768     -5923.0685      4370.1509    
     89270   406.68407     -926.33974     -6365.4737      4371.8671    
     89280   369.90224     -925.4007      -5918.3376      4370.586     
     89290   362.69714     -925.27241     -4907.1495      4366.4411    
     89300   391.55325     -926.13558     -3493.1652      4359.8566    
     89310   389.03862     -926.11474     -1532.5289      4351.4786    
     89320   388.33357     -926.12883      627.90085      4342.2034    
     89330   388.95069     -926.16112      2754.1924      4333.0412    
     89340   390.98844     -926.21856      4604.5041      4324.9951    
     89350   392.03804     -926.24332      5921.1958      4318.9476    
     89360   371.76636     -925.67526      6663.3852      4315.5523    
     89370   368.4555      -925.57723      6736.5854      4315.2049    
     89380   389.37327     -926.15026      6070.7678      4318.0014    
     89390   387.3053      -926.08262      4767.3517      4323.7082    
     89400   367.88101     -925.52393      2919.2142      4331.7871    
     89410   369.55297     -925.52693      690.21359      4341.4303    
     89420   387.75364     -925.95432     -1639.0189      4351.6245    
     89430   390.89424     -925.93388     -3755.0512      4361.2768    
     89440   398.31039     -926.01489     -5629.8515      4369.3459    
     89450   382.78583     -925.45122     -6898.4815      4374.8966    
     89460   385.12791     -925.38664     -7407.6554      4377.2566    
     89470   392.97239     -925.4749      -7068.7563      4376.1167    
     89480   409.3164      -925.80366     -6019.0413      4371.571     
     89490   412.91617     -925.78263     -4244.5256      4364.0787    
     89500   398.23875     -925.25782     -1858.3668      4354.4554    
     89510   405.81476     -925.3441       590.99068      4343.8009    
     89520   414.2524      -925.44349      2850.6853      4333.2674    
     89530   405.19411     -925.05798      4894.194       4323.9283    
     89540   388.14552     -924.45912      6547.8191      4316.7531    
     89550   402.00326     -924.73056      7471.3249      4312.5244    
     89560   402.24804     -924.64084      7797.5056      4311.7215    
     89570   409.1564      -924.76253      7313.1528      4314.538     
     89580   440.3245      -925.58191      6001.506       4320.8132    
     89590   440.01602     -925.55287      3957.4507      4330.0048    
     89600   412.59975     -924.7859       1259.2461      4341.2097    
     89610   404.63589     -924.55205     -1598.869       4353.2061    
     89620   409.02967     -924.6458      -4152.8241      4364.6558    
     89630   424.03296     -925.03014     -6315.5252      4374.3114    
     89640   430.56454     -925.19408     -7887.2506      4381.0928    
     89650   415.33578     -924.78065     -8585.6569      4384.1954    
     89660   422.87772     -925.03121     -8459.674       4383.2202    
     89670   419.60137     -925.01079     -7435.4097      4378.1848    
     89680   398.11358     -924.49828     -5537.3447      4369.5507    
     89690   398.55037     -924.58711     -2967.1326      4358.207     
     89700   407.12555     -924.88065      16.904392      4345.3706    
     89710   416.04707     -925.16168      3041.3028      4332.4489    
     89720   414.25365     -925.13102      5744.4403      4320.8603    
     89730   403.13109     -924.83684      7823.3952      4311.864     
     89740   402.76384     -924.84891      9045.7029      4306.4284    
     89750   407.68984     -925.02693      9369.1563      4305.1368    
     89760   420.15983     -925.44089      8756.5179      4308.172     
     89770   423.42026     -925.624        7153.6182      4315.2954    
     89780   414.83282     -925.48685      4781.1794      4325.8269    
     89790   414.63151     -925.57087      1709.1751      4338.7053    
     89800   416.30901     -925.68163     -1688.8855      4352.5254    
     89810   394.67408     -925.11414     -4812.2492      4365.6977    
     89820   374.58421     -924.55839     -7273.504       4376.7186    
     89830   401.42923     -925.29586     -9107.158       4384.3556    
     89840   401.32302     -925.29706     -9893.1515      4387.6989    
     89850   380.04509     -924.73211     -9534.8556      4386.3336    
     89860   387.18095     -924.97061     -8170.2175      4380.4053    
     89870   404.86446     -925.50648     -5863.8839      4370.5671    
     89880   396.86382     -925.31867     -2864.3646      4357.9287    
     89890   407.79291     -925.63475      315.96218      4343.9172    
     89900   413.49511     -925.7819       3453.1935      4330.0455    
     89910   395.40488     -925.25024      6483.4624      4317.7928    
     89920   398.0385      -925.28656      8789.0356      4308.539     
     89930   414.74675     -925.72791      9969.934       4303.3259    
     89940   408.1         -925.55167      10006.497      4302.6928    
     89950   405.33157     -925.51466      8975.4831      4306.669     
     89960   416.01975     -925.87314      6932.5339      4314.8025    
     89970   398.27022     -925.44562      4206.438       4326.1943    
     89980   374.84144     -924.83801      955.77897      4339.6023    
     89990   389.47066     -925.25044     -2369.8314      4353.5238    
     90000   391.92212     -925.29306     -5144.6703      4366.401     
     90010   375.57133     -924.79612     -7328.8539      4376.886     
     90020   388.93335     -925.1205      -8946.4978      4383.8996    
     90030   403.75189     -925.49776     -9581.2736      4386.6606    
     90040   396.14917     -925.27714     -9098.7605      4384.8591    
     90050   397.50415     -925.32612     -7671.9445      4378.7262    
     90060   399.01402     -925.38366     -5406.4099      4368.9669    
     90070   409.38121     -925.67604     -2554.9491      4356.6862    
     90080   433.37296     -926.32968      461.07652      4343.252     
     90090   422.07631     -925.99277      3466.5435      4330.1008    
     90100   386.37806     -924.96918      6154.785       4318.6302    
     90110   392.86456     -925.11263      8045.166       4310.0532    
     90120   398.22946     -925.23106      9190.5036      4305.224     
     90130   394.6398      -925.12058      9424.2222      4304.6399    
     90140   399.1987      -925.2572       8530.0773      4308.3876    
     90150   403.76975     -925.40668      6609.4571      4316.0598    
     90160   390.46484     -925.05581      4065.5214      4326.794     
     90170   390.94762     -925.0658       1053.6417      4339.4188    
     90180   401.3742      -925.31728     -2071.6806      4352.536     
     90190   394.96084     -925.07031     -4700.4668      4364.6841    
     90200   404.04445     -925.23622     -6713.5362      4374.6018    
     90210   414.69316     -925.44196     -8077.4173      4381.3132    
     90220   406.00202     -925.12467     -8646.9649      4384.1655    
     90230   408.38096     -925.13507     -8424.4621      4382.8927    
     90240   418.61775     -925.38002     -7327.5748      4377.6277    
     90250   431.95773     -925.72412     -5378.1281      4368.9298    
     90260   414.4216      -925.21442     -2723.5507      4357.766     
     90270   403.25745     -924.87171      98.36438       4345.4084    
     90280   418.42554     -925.241        2762.3583      4333.1967    
     90290   416.32935     -925.11983      5226.0385      4322.3783    
     90300   393.46117     -924.4214       7316.4102      4314.0774    
     90310   408.28562     -924.77878      8469.5701      4309.2047    
     90320   414.08035     -924.90352      8677.1024      4308.2608    
     90330   406.62015     -924.68618      7956.6585      4311.3139    
     90340   412.14767     -924.84795      6354.0265      4318.0181    
     90350   410.64937     -924.82075      4108.5879      4327.6356    
     90360   397.41172     -924.45909      1431.2552      4339.128     
     90370   414.30865     -924.91681     -1509.4899      4351.2411    
     90380   411.8638      -924.82086     -3984.534       4362.6135    
     90390   422.46501     -925.08635     -5848.833       4372.0652    
     90400   459.0886      -926.09446     -7258.258       4378.6954    
     90410   459.1633      -926.13717     -8043.3968      4381.8411    
     90420   416.87249     -925.05518     -7973.6771      4381.1551    
     90430   391.36694     -924.46934     -7190.4855      4376.6926    
     90440   377.21489     -924.20531     -5679.8969      4368.8731    
     90450   387.06512     -924.60208     -3526.6528      4358.458     
     90460   399.53481     -925.05782     -765.21023      4346.5133    
     90470   399.98092     -925.16351      2183.9243      4334.351     
     90480   392.1589      -925.02036      4958.1953      4323.3473    
     90490   410.19218     -925.59316      7017.17        4314.7504    
     90500   402.90835     -925.47651      8350.9137      4309.479     
     90510   399.16702     -925.47856      8715.7795      4308.0917    
     90520   407.54647     -925.84311      8035.2022      4310.7158    
     90530   393.55952     -925.60316      6399.7738      4317.012     
     90540   377.41496     -925.29545      4166.5237      4326.2217    
     90550   387.2011      -925.68775      1644.19        4337.3084    
     90560   391.89788     -925.91331     -952.6561       4349.0944    
     90570   407.25595     -926.41505     -3572.3031      4360.3494    
     90580   402.02801     -926.33595     -5772.1495      4369.8456    
     90590   378.99217     -925.75501     -7316.0793      4376.5465    
     90600   384.32135     -925.96371     -8255.8534      4379.722     
     90610   377.45948     -925.84176     -8205.6584      4378.9684    
     90620   357.19115     -925.3489      -7195.5756      4374.3499    
     90630   364.70276     -925.61686     -5428.5021      4366.3939    
     90640   374.52985     -925.92848     -2994.7249      4355.9927    
     90650   358.55767     -925.49008     -115.3571       4344.3379    
     90660   376.15437     -925.94723      2591.9745      4332.7835    
     90670   390.57853     -926.28551      4972.7015      4322.5896    
     90680   374.28522     -925.75491      6945.6563      4314.8353    
     90690   398.78667     -926.35375      8000.3838      4310.3668    
     90700   423.05879     -926.95297      8213.7999      4309.6258    
     90710   380.75856     -925.72174      7649.6557      4312.6707    
     90720   389.05728     -925.90249      5837.2284      4319.1832    
     90730   402.72715     -926.20937      3392.9287      4328.3281    
     90740   357.31498     -924.8472       1018.0774      4338.9831    
     90750   366.4196      -924.95785     -1414.3896      4350.0184    
     90760   414.1123      -926.06836     -3750.9134      4360.2869    
     90770   401.03849     -925.4465      -5390.1772      4368.7116    
     90780   405.58601     -925.30992     -6653.3975      4374.5028    
     90790   424.80215     -925.58078     -7381.7126      4377.0852    
     90800   385.18869     -924.25638     -7098.5664      4376.1674    
     90810   382.02999     -923.99537     -6191.9829      4371.9094    
     90820   431.69977     -925.22277     -4667.7551      4364.7951    
     90830   423.32533     -924.86986     -2287.7566      4355.6126    
     90840   422.53264     -924.76178      253.01522      4345.4958    
     90850   453.1288      -925.54541      2528.9739      4335.6416    
     90860   430.26483     -924.8675       4573.5629      4327.1142    
     90870   417.71775     -924.49697      5923.3         4320.8175    
     90880   439.30347     -925.09769      6433.0083      4317.3298    
     90890   401.22533     -924.06295      6659.0738      4316.8697    
     90900   402.98647     -924.14845      6198.4669      4319.4825    
     90910   447.33545     -925.43214      4755.9132      4324.9101    
     90920   428.54296     -924.98049      2997.6264      4332.4894    
     90930   399.83092     -924.25513      1067.7148      4341.3902    
     90940   429.6907      -925.15041     -1205.2982      4350.6883    
     90950   428.35227     -925.1832      -3211.7859      4359.3361    
     90960   386.00973     -924.07347     -4649.5783      4366.3992    
     90970   410.57829     -924.82224     -5790.1626      4371.1898    
     90980   427.67597     -925.37942     -6297.7656      4373.2025    
     90990   410.42264     -925.00442     -6029.3041      4372.2312    
     91000   408.25537     -925.06047     -5228.6882      4368.4337    
     91010   426.00058     -925.68388     -3999.6254      4362.2286    
     91020   408.11197     -925.32211     -2174.2724      4354.2497    
     91030   402.36545     -925.28808     -144.62549      4345.3735    
     91040   399.92488     -925.33207      1876.2148      4336.564     
     91050   382.92913     -924.95339      3763.7136      4328.7604    
     91060   388.78376     -925.19191      5147.9576      4322.808     
     91070   416.95608     -926.0547       5813.537       4319.3056    
     91080   386.36026     -925.29132      6058.6529      4318.5389    
     91090   376.91285     -925.11102      5597.2845      4320.5717    
     91100   416.47041     -926.29326      4300.5187      4325.1538    
     91110   403.1613      -926.01085      2723.7175      4331.6855    
     91120   357.85365     -924.82298      1082.8259      4339.4259    
     91130   383.06612     -925.56893     -759.44125      4347.5894    
     91140   403.26678     -926.15856     -2461.8558      4355.3224    
     91150   394.789       -925.94372     -3915.9417      4361.8261    
     91160   405.38707     -926.26027     -5075.924       4366.4191    
     91170   382.79192     -925.65779     -5503.9031      4368.5879    
     91180   375.0776      -925.46829     -5331.0594      4368.1471    
     91190   400.72961     -926.2056      -4794.0539      4365.1996    
     91200   385.05055     -925.79505     -3698.5864      4360.046     
     91210   361.73959     -925.16151     -2214.9368      4353.232     
     91220   396.60186     -926.12612     -668.80856      4345.4699    
     91230   387.82307     -925.86033      1144.7409      4337.5161    
     91240   351.0448      -924.79888      2969.2926      4330.2103    
     91250   376.12768     -925.43036      4434.751       4324.3756    
     91260   398.08459     -925.94872      5589.6035      4320.6728    
     91270   390.71984     -925.64101      6182.0989      4319.5981    
     91280   424.29642     -926.46194      5675.5483      4321.3688    
     91290   418.19329     -926.16851      4450.0803      4325.7394    
     91300   377.96468     -924.92253      2878.2213      4332.1352    
     91310   399.43442     -925.36115      1013.1423      4339.8094    
     91320   421.3018      -925.76213     -731.96565      4347.8991    
     91330   410.63106     -925.23859     -2257.3296      4355.5841    
     91340   423.08064     -925.35267     -3777.9892      4362.1327    
     91350   430.06732     -925.31978     -4875.5296      4366.8492    
     91360   393.12677     -924.09969     -5258.62        4369.2387    
     91370   396.10272     -924.02167     -5342.6788      4369.1198    
     91380   428.74122     -924.78436     -5038.6763      4366.4835    
     91390   408.84268     -924.11857     -3851.6282      4361.5293    
     91400   396.9079      -923.70186     -2081.4478      4354.8393    
     91410   431.15537     -924.57637     -245.05809      4347.2554    
     91420   437.57543     -924.69071      1630.9282      4339.6576    
     91430   436.08913     -924.60707      3262.6117      4332.9135    
     91440   467.1587      -925.45641      4423.5716      4327.7603    
     91450   447.11061     -924.92235      5338.162       4324.7276    
     91460   425.10269     -924.36193      5560.7781      4324.1934    
     91470   453.78594     -925.235        4807.5332      4326.2209    
     91480   433.73528     -924.77989      3710.1462      4330.4681    
     91490   397.59697     -923.87712      2254.3339      4336.4059    
     91500   431.37386     -924.91244      315.55808      4343.3347    
     91510   419.24303     -924.67129     -1261.1106      4350.3795    
     91520   390.91201     -923.9683      -2565.3341      4356.7881    
     91530   432.4842      -925.20201     -3869.5326      4361.9325    
     91540   432.90373     -925.30851     -4563.8125      4365.2289    
     91550   383.80588     -924.03811     -4606.7855      4366.3633    
     91560   426.25692     -925.31382     -4662.1172      4365.2994    
     91570   411.93729     -925.02344     -4028.8265      4362.0684    
     91580   360.69103     -923.69138     -2685.0363      4356.9963    
     91590   420.94103     -925.44107     -1311.013       4350.711     
     91600   453.44553     -926.4288       297.30044      4343.889     
     91610   397.62754     -924.96513      2076.8599      4337.2932    
     91620   411.74335     -925.43602      3297.8947      4331.7196    
     91630   430.04039     -926.02893      4137.3637      4327.7348    
     91640   409.34351     -925.54495      4631.6388      4325.7128    
     91650   426.63817     -926.12626      4399.845       4325.8453    
     91660   401.77611     -925.54547      3786.1773      4328.0218    
     91670   345.37849     -924.06659      2907.3972      4331.9479    
     91680   381.29347     -925.12624      1502.1072      4337.1894    
     91690   401.48577     -925.73397      140.19368      4343.1087    
     91700   367.2535      -924.81346     -1008.3255      4349.0706    
     91710   401.14282     -925.77179     -2373.2027      4354.5109    
     91720   409.95585     -926.02853     -3460.7257      4358.8086    
     91730   374.67109     -925.05932     -3896.2074      4361.4702    
     91740   395.89976     -925.65758     -4062.0283      4362.2777    
     91750   405.85222     -925.94278     -3796.1445      4361.1753    
     91760   390.84427     -925.53708     -3059.8704      4358.3066    
     91770   414.96197     -926.22037     -2097.9379      4354.025     
     91780   404.20622     -925.93643     -809.41154      4348.8074    
     91790   378.03932     -925.219        497.27203      4343.2582    
     91800   409.21311     -926.087        1466.9582      4337.979     
     91810   401.69121     -925.87797      2388.9419      4333.4358    
     91820   363.68424     -924.81826      3285.244       4330.0523    
     91830   393.94147     -925.64571      3750.6846      4328.2186    
     91840   420.77788     -926.37634      3637.8055      4328.1327    
     91850   385.16254     -925.37908      3198.2114      4329.7435    
     91860   379.73605     -925.21969      2357.8158      4332.8306    
     91870   379.83781     -925.19988      1408.1677      4337.0085    
     91880   369.29378     -924.86611      445.48947      4341.8321    
     91890   385.25155     -925.2437      -625.87706      4346.8421    
     91900   400.20937     -925.56381     -1573.7106      4351.543     
     91910   404.12063     -925.55064     -2274.3785      4355.4938    
     91920   434.96001     -926.2594      -2946.1345      4358.353     
     91930   432.02198     -926.00906     -3353.4837      4359.8172    
     91940   396.46791     -924.84955     -3303.9305      4359.7075    
     91950   406.03228     -924.92784     -2966.4799      4358.0473    
     91960   436.99621     -925.56947     -2270.3901      4355.0104    
     91970   430.76561     -925.17184     -1139.2439      4350.9422    
     91980   408.9693      -924.36041     -20.349108      4346.3663    
     91990   420.24404     -924.48179      791.67813      4341.8004    
     92000   419.14342     -924.27193      1677.964       4337.6448    
     92010   412.2652      -923.92715      2503.2264      4334.3048    
     92020   431.08708     -924.31898      2970.6638      4332.1477    
     92030   426.51824     -924.08756      3226.7236      4331.3938    
     92040   426.87766     -924.02385      3127.9158      4332.1469    
     92050   444.02474     -924.45231      2711.9082      4334.3582    
     92060   445.06416     -924.4628       2105.3125      4337.8341    
     92070   433.66312     -924.15279      1208.1937      4342.285     
     92080   467.90404     -925.13587     -156.66857      4347.2767    
     92090   455.50775     -924.85429     -1270.6409      4352.1991    
     92100   417.2761      -923.87365     -2114.0384      4356.5228    
     92110   438.79247     -924.56116     -3028.1581      4359.8324    
     92120   457.2842      -925.19146     -3661.1054      4361.7097    
     92130   402.21122     -923.78924     -3635.3655      4361.8759    
     92140   413.32058     -924.22054     -3445.9153      4360.3234    
     92150   444.17736     -925.21138     -2893.6902      4357.1608    
     92160   405.64566     -924.27672     -1685.5553      4352.6739    
     92170   395.56564     -924.11149     -456.67877      4347.415     
     92180   431.43114     -925.21407      668.51589      4341.9657    
     92190   414.75767     -924.85275      2021.0284      4336.8729    
     92200   413.07545     -924.89678      3098.0371      4332.7469    
     92210   439.02667     -925.71378      3572.2913      4330.0707    
     92220   400.84349     -924.74905      3777.5172      4329.0766    
     92230   404.77859     -924.94613      3433.685       4329.8385    
     92240   425.88296     -925.621        2775.9646      4332.2018    
     92250   399.37627     -924.97016      2086.6474      4335.8702    
     92260   408.47783     -925.29995      1045.3453      4340.5046    
     92270   431.04724     -926.0038      -240.96726      4345.6189    
     92280   396.58092     -925.12043     -1300.1449      4350.6294    
     92290   391.65761     -925.04526     -2392.9221      4355.0202    
     92300   409.02716     -925.58415     -3406.9689      4358.2755    
     92310   378.46312     -924.78528     -3747.8983      4359.942     
     92320   378.28074     -924.82149     -3602.6007      4359.848     
     92330   400.18845     -925.46415     -3141.2724      4358.0601    
     92340   406.77063     -925.68081     -2348.0366      4354.8045    
     92350   408.05845     -925.75224     -1259.5984      4350.4643    
     92360   412.91591     -925.92496     -148.51089      4345.548     
     92370   408.96007     -925.85483      922.4721       4340.5821    
     92380   401.24495     -925.68209      1890.1433      4336.0676    
     92390   380.63093     -925.14679      2690.2605      4332.4546    
     92400   374.6773      -925.00892      3200.7663      4330.1075    
     92410   398.35999     -925.6876       3397.1479      4329.26      
     92420   402.79254     -925.8337       3274.1971      4329.9997    
     92430   381.63698     -925.26942      2814.4205      4332.2679    
     92440   393.49896     -925.61946      1992.098       4335.846     
     92450   394.19527     -925.65254      1045.5054      4340.3631    
     92460   402.68274     -925.89788     -213.64961      4345.3637    
     92470   416.43105     -926.2897      -1533.323       4350.2645    
     92480   383.92214     -925.3989      -2466.1881      4354.4606    
     92490   363.35477     -924.83292     -3193.4608      4357.497     
     92500   390.04795     -925.56944     -3634.2176      4359.0296    
     92510   379.64651     -925.26612     -3382.8917      4358.8685    
     92520   383.51474     -925.34999     -2766.5946      4357.1193    
     92530   430.64677     -926.62432     -2049.0698      4354.0676    
     92540   423.55393     -926.39209     -1107.2652      4350.0658    
     92550   389.41125     -925.41288     -137.61661      4345.555     
     92560   397.04206     -925.58631      694.23731      4340.9865    
     92570   388.27205     -925.28809      1626.4334      4336.7644    
     92580   379.69725     -924.97969      2482.1292      4333.3176    
     92590   396.10775     -925.34509      2996.8881      4331.0327    
     92600   398.55436     -925.30492      3301.2334      4330.1547    
     92610   391.50109     -924.991        3313.9247      4330.8228    
     92620   423.11209     -925.7404       2701.1948      4333.0261    
     92630   415.73066     -925.40115      1891.6434      4336.4995    
     92640   385.04752     -924.42303      962.51084      4340.8685    
     92650   420.71534     -925.2818      -299.65784      4345.6849    
     92660   429.16721     -925.37737     -1301.0051      4350.3818    
     92670   400.45113     -924.45661     -1928.7849      4354.4886    
     92680   422.8783      -924.96598     -2651.9153      4357.6819    
     92690   457.65165     -925.82649     -3239.6082      4359.6273    
     92700   432.54343     -925.05451     -3246.6847      4360.0633    
     92710   406.05587     -924.27245     -2902.4075      4358.9749    
     92720   418.02741     -924.56951     -2479.0172      4356.5142    
     92730   421.38463     -924.63498     -1791.748       4352.8946    
     92740   419.98712     -924.57943     -846.16216      4348.4438    
     92750   414.66561     -924.42327      265.62524      4343.6098    
     92760   406.46337     -924.19123      1367.127       4338.9106    
     92770   425.05604     -924.70789      2266.1713      4334.8572    
     92780   445.73123     -925.30005      2882.6781      4331.8646    
     92790   409.56198     -924.33585      3509.7095      4330.2366    
     92800   394.04262     -923.95668      3627.6188      4330.2402    
     92810   419.43775     -924.7237       3234.2533      4331.9337    
     92820   434.49636     -925.22397      2580.9259      4335.1464    
     92830   433.4664      -925.30518      1645.7981      4339.5752    
     92840   441.17432     -925.6584       366.17457      4344.7809    
     92850   437.86149     -925.73965     -986.37084      4350.1737    
     92860   404.00563     -924.98694     -2176.4067      4355.1229    
     92870   397.5219      -924.99199     -3282.7641      4359.0546    
     92880   404.76209     -925.37751     -3997.7855      4361.4513    
     92890   392.35188     -925.21049     -4112.9514      4361.9769    
     92900   382.15001     -925.08348     -3791.0396      4360.5664    
     92910   392.30454     -925.50296     -3140.1925      4357.3683    
     92920   380.00234     -925.27518     -2094.1059      4352.6993    
     92930   373.25601     -925.17232     -864.52641      4347.0498    
     92940   380.30944     -925.42564      519.11718      4341.0047    
     92950   381.45947     -925.49109      1990.5758      4335.2163    
     92960   398.64843     -925.98692      3186.8838      4330.3595    
     92970   412.01099     -926.37378      4045.4207      4326.9921    
     92980   404.06377     -926.17369      4480.409       4325.5096    
     92990   405.56389     -926.24238      4318.4427      4326.1081    
     93000   408.45917     -926.3565       3568.1988      4328.7149    
     93010   379.60012     -925.58766      2468.0557      4332.9952    
     93020   366.18237     -925.23389      1176.6069      4338.4464    
     93030   384.03724     -925.73006     -164.00225      4344.4707    
     93040   386.4919      -925.78249     -1479.6087      4350.4393    
     93050   392.15082     -925.91425     -2740.9332      4355.729     
     93060   398.0548      -926.04853     -3782.2435      4359.7416    
     93070   370.45363     -925.25039     -4319.9102      4361.9875    
     93080   359.25532     -924.9022      -4348.4968      4362.2034    
     93090   374.22455     -925.2676      -3867.5604      4360.3726    
     93100   382.65852     -925.43737     -2906.2061      4356.7245    
     93110   407.71116     -926.05856     -1725.8727      4351.7063    
     93120   413.10062     -926.12877     -276.78069      4345.8857    
     93130   387.09001     -925.32641      1325.7355      4339.9463    
     93140   413.31181     -925.97098      2559.246       4334.6212    
     93150   429.87801     -926.34612      3364.3486      4330.4877    
     93160   385.1175      -925.03101      3886.4835      4327.9287    
     93170   394.63052     -925.23038      3868.0952      4327.1728    
     93180   405.56521     -925.46443      3653.5746      4328.2303    
     93190   394.66385     -925.09414      3199.6486      4331.0037    
     93200   416.2512      -925.6259       2192.4967      4335.272     
     93210   417.5993      -925.59344      973.78376      4340.5845    
     93220   394.86203     -924.89354     -254.35794      4346.3801    
     93230   411.09456     -925.27032     -1687.1937      4352.0701    
     93240   405.46294     -925.03026     -3024.6413      4356.985     
     93250   364.55338     -923.80626     -3797.1559      4360.504     
     93260   382.66653     -924.2053      -4157.1661      4362.2432    
     93270   428.92509     -925.35503     -4036.9385      4362.0277    
     93280   433.21686     -925.32337     -3272.8489      4359.9211    
     93290   435.52173     -925.23537     -2240.5201      4356.2696    
     93300   447.08147     -925.39766     -1169.4387      4351.5559    
     93310   432.7154      -924.8368       112.06477      4346.2997    
     93320   441.0964      -924.90528      1370.2778      4341.0968    
     93330   440.41841     -924.71594      2431.8072      4336.5343    
     93340   424.84168     -924.11699      3142.6071      4333.1047    
     93350   439.27233     -924.35352      3436.3663      4331.1384    
     93360   443.41536     -924.30613      3458.4285      4330.7795    
     93370   424.00018     -923.61946      3260.3937      4332.0449    
     93380   434.96308     -923.7861       2539.7404      4334.8313    
     93390   457.37203     -924.27492      1514.5031      4338.8188    
     93400   442.47018     -923.7443       543.68471      4343.5456    
     93410   434.90356     -923.43828     -440.79166      4348.5527    
     93420   455.63877     -923.93094     -1515.8073      4353.3708    
     93430   452.80646     -923.78974     -2413.0641      4357.5003    
     93440   443.18502     -923.48958     -3019.3463      4360.5128    
     93450   445.03414     -923.53563     -3260.0794      4362.1173    
     93460   466.54738     -924.16451     -3267.496       4362.1861    
     93470   473.98165     -924.45587     -2978.734       4360.7169    
     93480   471.43533     -924.54201     -2455.709       4357.8402    
     93490   438.60477     -923.84941     -1529.9936      4353.8132    
     93500   444.06808     -924.26661     -499.02146      4349.0612    
     93510   463.04562     -925.1162       457.44165      4344.0654    
     93520   423.90617     -924.36079      1558.229       4339.2913    
     93530   393.37803     -923.7843       2484.4374      4335.2425    
     93540   416.92816     -924.65525      2956.4648      4332.3409    
     93550   420.21819     -924.92831      3234.714       4330.8227    
     93560   396.35439     -924.40754      3235.5995      4330.8164    
     93570   404.98202     -924.76088      2819.9335      4332.3208    
     93580   407.50448     -924.92913      2283.6063      4335.1609    
     93590   411.08657     -925.11629      1555.0639      4339.0887    
     93600   440.12253     -926.01299      464.76576      4343.7597    
     93610   433.12929     -925.92005     -653.69871      4348.6785    
     93620   406.01137     -925.26955     -1754.4532      4353.3165    
     93630   403.33634     -925.29311     -2807.9799      4357.1487    
     93640   396.23877     -925.18952     -3546.2617      4359.6785    
     93650   384.28801     -924.94447     -3749.4298      4360.5564    
     93660   398.39824     -925.41916     -3573.1948      4359.6701    
     93670   405.78805     -925.71047     -3013.7797      4357.0983    
     93680   387.44393     -925.2838      -2066.085       4353.1068    
     93690   401.33631     -925.74783     -1085.753       4348.1277    
     93700   395.25908     -925.65357      73.2012        4342.6334    
     93710   366.53836     -924.91569      1416.4141      4337.1725    
     93720   386.60505     -925.5172       2565.4289      4332.3625    
     93730   404.64733     -926.0574       3487.429       4328.742     
     93740   386.50709     -925.59276      4171.9922      4326.7456    
     93750   392.05705     -925.78634      4252.4543      4326.682     
     93760   408.23193     -926.27975      3691.2633      4328.596     
     93770   388.77802     -925.7866       2764.2175      4332.2481    
     93780   381.57637     -925.62876      1553.0865      4337.2165    
     93790   391.80966     -925.94508      173.41963      4342.9453    
     93800   385.57125     -925.79335     -1159.1589      4348.7971    
     93810   384.81453     -925.78332     -2419.0374      4354.1394    
     93820   391.09936     -925.96125     -3451.6446      4358.3738    
     93830   378.40361     -925.60602     -3979.4121      4361.0117    
     93840   378.06639     -925.5893      -4062.4527      4361.786     
     93850   377.29424     -925.55182     -3808.1039      4360.6444    
     93860   378.43195     -925.55802     -3285.0712      4357.6968    
     93870   383.26677     -925.6533      -2315.2276      4353.1972    
     93880   398.31964     -926.0173      -935.57493      4347.6032    
     93890   396.75961     -925.90477      599.02059      4341.5592    
     93900   401.1753      -925.94749      1890.868       4335.7714    
     93910   400.92174     -925.84959      3072.8245      4330.8584    
     93920   412.51867     -926.07686      3883.2793      4327.3623    
     93930   392.63354     -925.42886      4315.2879      4325.6687    
     93940   373.75635     -924.8105       4252.7564      4325.9795    
     93950   382.78021     -924.95479      3700.0404      4328.276     
     93960   396.08129     -925.20023      2871.3837      4332.3224    
     93970   419.10383     -925.70237      1721.5973      4337.7412    
     93980   430.43276     -925.87549      254.60318      4344.0023    
     93990   405.1958      -925.04185     -1255.9708      4350.4296    
     94000   384.08423     -924.32957     -2649.3906      4356.314     
     94010   409.99993     -924.91802     -3908.3406      4360.9824    
     94020   421.13067     -925.09589     -4497.9241      4363.8466    
     94030   412.02429     -924.73089     -4389.8499      4364.6121    
     94040   432.98363     -925.22056     -3967.2657      4363.3005    
     94050   437.82796     -925.28339     -3238.6725      4360.1057    
     94060   419.47003     -924.72723     -2142.2306      4355.3723    
     94070   401.97115     -924.20682     -851.84387      4349.6123    
     94080   418.42726     -924.63178      377.37891      4343.4249    
     94090   431.70972     -924.97224      1716.3984      4337.4016    
     94100   432.63068     -924.98437      3086.9806      4332.1695    
     94110   417.42309     -924.56373      4156.2862      4328.3632    
     94120   436.67767     -925.11952      4474.5661      4326.4657    
     94130   442.40294     -925.32822      4322.9869      4326.6508    
     94140   403.57273     -924.32233      3691.1042      4328.857     
     94150   393.08211     -924.11044      2646.2783      4332.8061    
     94160   390.74254     -924.12186      1393.1245      4338.0295    
     94170   398.37965     -924.40517      69.426426      4343.9542    
     94180   431.2498      -925.39668     -1203.0153      4349.9643    
     94190   426.16564     -925.35561     -2178.7722      4355.4675    
     94200   411.62409     -925.07049     -3084.2351      4359.983     
     94210   441.98326     -926.06644     -3998.1922      4363.062     
     94220   422.8954      -925.73579     -4336.3258      4364.282     
     94230   379.72382     -924.74878     -4141.9542      4363.4645    
     94240   415.83379     -925.97972     -3769.5361      4360.6718    
     94250   407.39689     -925.9962      -2782.2398      4356.0948    
     94260   357.88144     -924.83217     -1355.3228      4350.1905    
     94270   387.50675     -925.82454     -61.667087      4343.6057    
     94280   382.22683     -925.81114      1494.9017      4336.973     
     94290   353.73472     -925.10021      2942.2938      4331.0101    
     94300   390.40836     -926.16424      3781.1383      4326.3769    
     94310   394.84946     -926.31833      4382.7943      4323.489     
     94320   348.2204      -925.03745      4801.3932      4322.6415    
     94330   389.10817     -926.17761      4435.1507      4324.0127    
     94340   396.68351     -926.38732      3775.4814      4327.4767    
     94350   360.6761      -925.38292      2818.1845      4332.7451    
     94360   405.10538     -926.6034       1151.5311      4339.3676    
     94370   409.51541     -926.70268     -520.51749      4346.6073    
     94380   370.53768     -925.59262     -1947.464       4353.6872    
     94390   402.137       -926.43416     -3490.057       4359.9053    
     94400   399.61178     -926.32182     -4719.1595      4364.5325    
     94410   358.99215     -925.15315     -5318.8616      4366.9743    
     94420   388.35949     -925.92607     -5497.5753      4366.907     
     94430   390.5581      -925.9389      -4884.3524      4364.2433    
     94440   356.36872     -924.93953     -3588.5673      4359.2539    
     94450   375.4715      -925.40556     -2136.1187      4352.5219    
     94460   389.50969     -925.70475     -409.71174      4344.7399    
     94470   372.96037     -925.13712      1632.5719      4336.7254    
     94480   389.48575     -925.4707       3509.1512      4329.4217    
     94490   408.91893     -925.87044      4905.7626      4323.7015    
     94500   403.0158      -925.57277      5734.988       4320.2227    
     94510   401.18725     -925.40468      5954.4159      4319.3874    
     94520   410.9334      -925.57212      5580.2146      4321.3217    
     94530   424.84519     -925.87038      4657.752       4325.8865    
     94540   437.09656     -926.14014      3054.748       4332.6779    
     94550   411.51615     -925.37419      1016.8571      4340.9863    
     94560   395.47225     -924.87593     -1165.6559      4349.8804    
     94570   398.13036     -924.88744     -3050.6676      4358.3492    
     94580   391.82429     -924.64221     -4579.4574      4365.4826    
     94590   403.20873     -924.88711     -5839.5962      4370.5202    
     94600   418.72231     -925.25499     -6608.1139      4372.8329    
     94610   395.15391     -924.55497     -6421.3633      4372.0378    
     94620   395.40376     -924.53012     -5455.9384      4368.1818    
     94630   409.8938      -924.90208     -3938.5213      4361.6923    
     94640   402.85976     -924.67276     -1924.2141      4353.2775    
     94650   418.55788     -925.06765      307.89028      4343.8738    
     94660   434.08284     -925.45068      2676.5381      4334.535     
     94670   429.09635     -925.26939      4776.4795      4326.3616    
     94680   434.67409     -925.3983       6153.7615      4320.3289    
     94690   433.44246     -925.36767      6709.9164      4317.0931    
     94700   393.52561     -924.28948      6616.2261      4316.9499    
     94710   408.8544      -924.765        5783.4688      4319.8889    
     94720   425.71997     -925.30402      4525.2138      4325.584     
     94730   404.93236     -924.81492      2904.194       4333.4984    
     94740   426.05226     -925.50645      628.94147      4342.8958    
     94750   430.79384     -925.76641     -1811.6625      4352.7491    
     94760   394.10975     -924.89646     -3973.1792      4361.9188    
     94770   370.25497     -924.38446     -5831.1964      4369.3498    
     94780   382.49607     -924.88697     -7166.5296      4374.119     
     94790   374.20722     -924.83353     -7516.3214      4375.5516    
     94800   377.45607     -925.10773     -6838.8743      4373.4236    
     94810   402.99056     -926.0096      -5385.7617      4368.0007    
     94820   412.14244     -926.46106     -3491.239       4359.9272    
     94830   400.23825     -926.31318     -1291.6265      4350.0786    
     94840   386.07182     -926.06938      1047.7225      4339.4797    
     94850   382.1454      -926.07036      3336.4257      4329.2253    
     94860   378.77627     -926.05312      5356.8452      4320.3881    
     94870   373.70979     -925.96352      6877.9044      4313.9208    
     94880   377.23659     -926.10111      7705.1138      4310.555     
     94890   379.82653     -926.21093      7757.35        4310.7214    
     94900   387.81133     -926.47436      6834.2161      4314.5036    
     94910   384.28837     -926.418        5016.3622      4321.5546    
     94920   356.79053     -925.68018      2655.0204      4331.1156    
     94930   342.06114     -925.26405      67.089368      4342.1508    
     94940   362.31935     -925.77786     -2609.8697      4353.4705    
     94950   384.29935     -926.30535     -4903.1698      4363.8186    
     94960   371.63074     -925.85566     -6551.3273      4372.0694    
     94970   376.29535     -925.88714     -7540.8225      4377.3686    
     94980   392.96978     -926.25748     -7897.1376      4379.1582    
     94990   378.61862     -925.7803      -7405.5388      4377.1967    
     95000   389.99169     -926.03111     -6232.5628      4371.635     
     95010   403.65551     -926.3468      -4355.7357      4362.9774    
     95020   385.54476     -925.7776      -1853.3205      4352.073     
     95030   375.93471     -925.42953      913.86197      4340.0712    
     95040   405.47755     -926.14527      3629.9694      4328.2599    
     95050   402.56256     -925.94565      6152.6976      4317.9233    
     95060   393.83224     -925.59344      7868.4887      4310.2406    
     95070   390.4902      -925.40812      8683.0785      4306.0579    
     95080   360.4238      -924.50104      8784.2033      4305.8344    
     95090   368.82826     -924.67817      8007.7798      4309.7069    
     95100   408.66952     -925.73177      6223.4212      4317.4202    
     95110   400.3917      -925.45195      3865.5869      4328.278     
     95120   412.31607     -925.73257      873.86488      4341.2613    
     95130   423.53641     -925.97997     -2355.2825      4355.0292    
     95140   392.08101     -925.03252     -5250.2394      4368.0728    
     95150   391.43524     -924.93394     -7733.7109      4378.9568    
     95160   420.27878     -925.65991     -9488.8439      4386.408     
     95170   410.83989     -925.35246     -10068.603      4389.4817    
     95180   406.33237     -925.22141     -9576.7092      4387.767     
     95190   420.15651     -925.63284     -8217.567       4381.3782    
     95200   386.04733     -924.72896     -5928.6624      4370.8855    
     95210   370.55337     -924.32863     -2992.7926      4357.3138    
     95220   406.36187     -925.31945      349.52556      4342.0228    
     95230   413.88109     -925.4903       4031.4591      4326.592     
     95240   401.14262     -925.07734      7463.6957      4312.7417    
     95250   400.82379     -925.00303      10104.581      4302.0868    
     95260   416.97388     -925.40542      11633.745      4295.8955    
     95270   425.81944     -925.64859      11913.481      4294.9597    
     95280   421.85738     -925.58966      10694.061      4299.5189    
     95290   394.76462     -924.92076      8277.1512      4309.1712    
     95300   389.8079      -924.86338      4926.5902      4322.9515    
     95310   407.40154     -925.40388      1044.6379      4339.425     
     95320   391.46583     -924.97035     -2870.3968      4356.8419    
     95330   399.53938     -925.16347     -6660.0734      4373.3331    
     95340   410.91234     -925.42686     -9750.6236      4387.0338    
     95350   402.77127     -925.15972     -11703.519      4396.3522    
     95360   404.40631     -925.20014     -12554.064      4400.2005    
     95370   411.98803     -925.45624     -12156.528      4398.0397    
     95380   391.55524     -924.97741     -10328.103      4389.963     
     95390   384.31037     -924.87798     -7352.9964      4376.7701    
     95400   393.334       -925.2108      -3536.1491      4359.8499    
     95410   387.99034     -925.09813      811.67872      4341.0171    
     95420   400.2355      -925.42191      5170.3985      4322.3285    
     95430   410.99582     -925.66825      9139.7831      4305.8377    
     95440   411.73748     -925.63779      12178.033      4293.3888    
     95450   412.11838     -925.63843      13893.5        4286.397     
     95460   410.67413     -925.66217      14019.552      4285.6908    
     95470   385.73734     -925.10788      12536.298      4291.4174    
     95480   390.18229     -925.42349      9535.9847      4303.0143    
     95490   386.50933     -925.53583      5630.9021      4319.2447    
     95500   370.75828     -925.29164      1147.598       4338.3907    
     95510   384.41159     -925.82233     -3432.2901      4358.3979    
     95520   386.11692     -925.98421     -7628.1846      4377.0794    
     95530   367.68835     -925.55644     -11049.273      4392.3622    
     95540   376.87509     -925.8948      -13427.454      4402.5001    
     95550   375.18047     -925.96408     -14258.478      4406.2628    
     95560   356.33549     -925.5909      -13542.408      4403.1697    
     95570   375.52898     -926.30084     -11503.007      4393.5216    
     95580   382.91127     -926.68688     -8036.7731      4378.3184    
     95590   365.49665     -926.34239     -3526.7729      4359.2529    
     95600   374.17932     -926.6526       1218.0647      4338.4966    
     95610   364.17341     -926.36778      5857.9009      4318.3232    
     95620   347.38029     -925.83172      9906.9957      4300.894     
     95630   374.21528     -926.48131      12799.628      4288.0385    
     95640   382.94304     -926.64357      14480.239      4281.0475    
     95650   354.27973     -925.80993      14783.859      4280.6581    
     95660   370.55596     -926.26701      13206.787      4286.9904    
     95670   378.3829      -926.5024       10203.264      4299.3837    
     95680   361.37876     -926.03082      6075.4419      4316.5182    
     95690   360.68971     -925.95364      1220.438       4336.531     
     95700   357.4537      -925.72285     -3514.0906      4357.1823    
     95710   349.04518     -925.27772     -7611.1597      4376.2151    
     95720   380.28535     -925.88973     -10913.192      4391.6206    
     95730   403.85576     -926.2853      -12950.443      4401.7827    
     95740   402.47648     -926.04341     -13609.891      4405.6976    
     95750   402.91329     -925.92961     -13079.681      4403.052     
     95760   401.22598     -925.82398     -11314.803      4394.1587    
     95770   376.27014     -925.11014     -8211.847       4379.9607    
     95780   388.79858     -925.43224     -4212.1273      4362.0285    
     95790   400.63995     -925.69302      378.38612      4342.3497    
     95800   397.89067     -925.50462      5072.9811      4323.1263    
     95810   396.63878     -925.32621      9118.4454      4306.5221    
     95820   415.33694     -925.70569      11816.696      4294.3182    
     95830   382.36324     -924.68609      13296.072      4287.6685    
     95840   361.05908     -924.04019      13286.493      4287.135     
     95850   395.61557     -924.98326      11888.414      4292.6406    
     95860   400.87403     -925.13575      9434.7377      4303.5119    
     95870   398.42516     -925.08031      6182.4998      4318.6083    
     95880   424.76644     -925.80222      2165.638       4336.4041    
     95890   439.75338     -926.17591     -2096.5176      4355.023     
     95900   409.96183     -925.2813      -5983.5621      4372.4554    
     95910   405.50883     -925.07734     -9272.6993      4386.8405    
     95920   417.55293     -925.34089     -11557.228      4396.6248    
     95930   409.3274      -925.08135     -12521.322      4400.7642    
     95940   401.83133     -924.89323     -12180.393      4398.8748    
     95950   405.41945     -925.05547     -10582.406      4391.2349    
     95960   399.33664     -924.96799     -7860.4603      4378.7459    
     95970   398.3564      -925.01216     -4400.6581      4362.8298    
     95980   395.34437     -924.96494     -412.55012      4345.2346    
     95990   385.94214     -924.69224      3739.1583      4327.8852    
     96000   393.94217     -924.86236      7492.5988      4312.691     
     96010   405.91643     -925.1293       10323.778      4301.2938    
     96020   408.73865     -925.16357      11868.36       4294.8559    
     96030   399.05597     -924.89111      12097.785      4293.9439    
     96040   422.56601     -925.58492      10907.629      4298.5266    
     96050   436.21973     -926.04554      8669.9227      4307.9762    
     96060   394.69885     -924.99209      5652.3427      4321.2029    
     96070   400.35846     -925.2355       1899.2466      4336.7574    
     96080   424.37378     -925.96627     -1892.3393      4352.8875    
     96090   405.66048     -925.49773     -5206.4004      4367.8146    
     96100   404.18169     -925.51009     -7969.2565      4379.9796    
     96110   404.58447     -925.60113     -9914.1774      4388.1185    
     96120   367.73182     -924.69008     -10671.727      4391.3954    
     96130   357.36069     -924.53794     -10397.971      4389.5501    
     96140   388.87335     -925.57709     -9095.4402      4382.8493    
     96150   381.93005     -925.56277     -6593.5899      4372.0692    
     96160   374.98852     -925.53016     -3412.9469      4358.5092    
     96170   391.42        -926.11904     -9.5089303      4343.7498    
     96180   374.9064      -925.75471      3481.4408      4329.4262    
     96190   381.12236     -925.98792      6392.777       4317.1124    
     96200   412.65748     -926.9224       8430.8146      4308.0657    
     96210   382.57446     -926.16086      9642.2459      4303.1112    
     96220   358.91798     -925.58579      9705.5299      4302.6624    
     96230   386.10303     -926.43647      8594.8317      4306.626     
     96240   371.36334     -926.12565      6893.9656      4314.424     
     96250   370.15719     -926.17709      4388.7603      4325.1911    
     96260   393.11981     -926.87463      1263.2366      4337.7274    
     96270   371.40203     -926.29846     -1753.7798      4350.5815    
     96280   355.55889     -925.85061     -4382.598       4362.3435    
     96290   372.69928     -926.29091     -6568.2138      4371.792     
     96300   370.14269     -926.1703      -7993.507       4377.949     
     96310   356.37164     -925.73689     -8494.347       4380.2121    
     96320   358.32629     -925.73732     -8138.9118      4378.4298    
     96330   367.6441      -925.92935     -6921.3795      4372.8734    
     96340   361.64195     -925.67085     -4787.2712      4364.2282    
     96350   367.27752     -925.69666     -2178.83        4353.5719    
     96360   391.58748     -926.1879       546.23021      4342.177     
     96370   423.29937     -926.84003      3147.9627      4331.328     
     96380   413.16981     -926.32139      5411.4072      4322.2055    
     96390   390.47451     -925.48114      6901.4724      4315.781     
     96400   400.5699      -925.5808       7476.3349      4312.6577    
     96410   404.96446     -925.55367      7352.7905      4313.027     
     96420   398.73506     -925.27121      6476.9706      4316.7552    
     96430   412.01741     -925.56163      4859.3573      4323.3803    
     96440   390.17659     -924.89436      2866.3926      4332.1279    
     96450   371.17715     -924.31021      551.2772       4342.0463    
     96460   403.15113     -925.1299      -1907.9172      4352.0462    
     96470   398.55704     -924.92621     -3892.3765      4360.9998    
     96480   394.13773     -924.73386     -5355.9801      4367.985     
     96490   415.8399      -925.27759     -6238.9707      4372.3387    
     96500   411.83621     -925.12614     -6283.5235      4373.697     
     96510   429.48672     -925.60056     -5848.4041      4372.0734    
     96520   448.68639     -926.14664     -4997.2073      4367.7284    
     96530   394.87462     -924.68626     -3499.8791      4361.1328    
     96540   368.67737     -923.98518     -1715.1201      4353.0245    
     96550   422.7833      -925.49968      113.21425      4344.2646    
     96560   419.79562     -925.42181      2263.9942      4335.7393    
     96570   413.60828     -925.25778      4143.8303      4328.4174    
     96580   440.02824     -926.01318      5321.9523      4323.1273    
     96590   413.32221     -925.31525      5897.835       4320.3778    
     96600   394.5997      -924.85475      5731.3005      4320.3835    
     96610   400.58233     -925.09064      4825.1767      4323.0243    
     96620   375.03669     -924.44948      3630.7545      4327.869     
     96630   377.41457     -924.57209      2159.2251      4334.3381    
     96640   404.05045     -925.35779      581.72409      4341.7398    
     96650   395.21037     -925.14966     -820.21852      4349.3427    
     96660   420.20923     -925.87987     -2349.8448      4356.4704    
     96670   440.36795     -926.49105     -3837.7998      4362.412     
     96680   387.33554     -925.08313     -4794.3272      4366.4967    
     96690   394.85508     -925.36476     -5464.377       4368.2723    
     96700   412.97823     -925.95739     -5419.6361      4367.4677    
     96710   380.98644     -925.1711      -4504.9788      4364.1428    
     96720   381.45441     -925.28467     -3264.934       4358.7431    
     96730   413.08245     -926.26997     -1878.801       4351.8788    
     96740   380.37322     -925.46796     -48.822422      4344.2429    
     96750   374.56729     -925.40014      1699.3264      4336.6826    
     96760   382.47509     -925.70714      3183.6742      4330.0072    
     96770   350.94228     -924.90436      4488.8405      4324.8983    
     96780   389.15697     -926.03332      5132.6305      4321.9161    
     96790   420.84524     -927.00056      5273.3307      4321.3401    
     96800   369.78757     -925.68382      5057.7053      4323.2176    
     96810   378.76307     -926.03627      3974.414       4327.4042    
     96820   409.63688     -927.00767      2330.9948      4333.394     
     96830   359.90482     -925.73871      762.53261      4340.4395    
     96840   353.09484     -925.64139     -1000.4597      4347.7848    
     96850   385.72306     -926.63141     -2682.7218      4354.6092    
     96860   346.51571     -925.61362     -3681.0141      4360.1481    
     96870   367.73934     -926.26335     -4510.576       4363.9072    
     96880   407.49092     -927.43619     -5095.9911      4365.5081    
     96890   358.35802     -926.14868     -4953.6465      4364.7118    
     96900   345.64116     -925.86605     -4386.3384      4361.5918    
     96910   368.06019     -926.5507      -3311.8134      4356.4457    
     96920   344.53472     -925.93904     -1547.2256      4349.8183    
     96930   361.63506     -926.43062      253.10417      4342.5303    
     96940   383.89496     -927.03957      1954.4989      4335.4334    
     96950   360.66666     -926.36335      3477.3898      4329.319     
     96960   370.56395     -926.58756      4447.1319      4324.8683    
     96970   385.15041     -926.92065      4829.1187      4322.5118    
     96980   351.82356     -925.90715      4821.3021      4322.4167    
     96990   358.0966      -925.97384      4234.6944      4324.5499    
     97000   375.25091     -926.30546      3375.5825      4328.641     
     97010   373.17391     -926.0744       2355.6406      4334.2869    
     97020   392.87369     -926.42711      843.11558      4340.9902    
     97030   402.79811     -926.49101     -937.25028      4348.0471    
     97040   373.10851     -925.46551     -2433.3562      4354.6406    
     97050   367.49493     -925.12397     -3600.5832      4360.0627    
     97060   386.72531     -925.47737     -4467.6634      4363.7607    
     97070   396.9864      -925.59579     -4856.3377      4365.3367    
     97080   393.06556     -925.34765     -4603.7444      4364.6258    
     97090   385.55684     -925.02338     -3836.7987      4361.7584    
     97100   403.91951     -925.43128     -2744.2263      4357.1102    
     97110   421.33887     -925.8217      -1393.3977      4351.2134    
     97120   399.4769      -925.13395      205.02944      4344.7223    
     97130   413.04012     -925.438        1659.103       4338.3773    
     97140   428.90729     -925.81189      2939.0469      4332.8601    
     97150   395.84395     -924.84001      3999.3944      4328.7585    
     97160   400.01111     -924.91185      4533.6842      4326.5411    
     97170   427.21019     -925.63174      4446.3603      4326.4358    
     97180   398.03558     -924.79812      3986.9206      4328.4027    
     97190   421.23247     -925.43152      2950.7685      4332.2062    
     97200   413.68603     -925.21699      1746.6948      4337.3759    
     97210   374.80557     -924.13242      440.15669      4343.3462    
     97220   408.11258     -925.04365     -1136.8599      4349.4904    
     97230   418.18303     -925.30354     -2396.4354      4355.0904    
     97240   395.47651     -924.65697     -3262.0193      4359.5521    
     97250   426.82073     -925.51907     -3988.7493      4362.4531    
     97260   414.91921     -925.19361     -4113.0875      4363.4758    
     97270   376.86526     -924.14995     -3681.5171      4362.5678    
     97280   432.89161     -925.72387     -3219.151       4359.9195    
     97290   452.18847     -926.2974      -2272.4323      4355.7869    
     97300   392.1728      -924.68605     -854.59228      4350.632     
     97310   412.36171     -925.30825      225.42078      4345.0948    
     97320   421.02759     -925.62047      1193.2945      4339.7009    
     97330   397.8737      -925.0574       2223.4079      4334.9131    
     97340   415.45949     -925.63807      2952.9378      4331.1901    
     97350   399.53203     -925.30456      3487.6129      4328.87      
     97360   352.34568     -924.0973       3779.2479      4328.1919    
     97370   384.19991     -925.07999      3447.5991      4329.2646    
     97380   388.013       -925.28725      2886.6607      4331.9453    
     97390   369.14178     -924.85501      2131.6994      4335.969     
     97400   427.62251     -926.57598      830.5723       4340.9608    
     97410   420.7739      -926.49976     -370.01147      4346.3393    
     97420   370.57781     -925.21762     -1372.5091      4351.5408    
     97430   401.8209      -926.1924      -2551.0346      4356.071     
     97440   417.72941     -926.75425     -3432.7629      4359.3941    
     97450   377.9751      -925.77493     -3770.4193      4361.1036    
     97460   367.70305     -925.60462     -3863.7608      4361.0288    
     97470   379.65877     -926.04524     -3599.9206      4359.1382    
     97480   368.84637     -925.84287     -2785.6987      4355.5768    
     97490   376.49562     -926.13967     -1685.7735      4350.7294    
     97500   382.5197      -926.37868     -417.78868      4345.123     
     97510   370.50641     -926.10113      898.875        4339.3571    
     97520   362.06471     -925.90428      2024.3244      4334.0418    
     97530   354.2307      -925.70375      2964.5199      4329.701     
     97540   351.50834     -925.62314      3776.6973      4326.7704    
     97550   373.82869     -926.21932      4169.5805      4325.607     
     97560   387.11452     -926.54975      4099.7807      4326.3851    
     97570   385.71755     -926.46311      3683.7632      4329.0723    
     97580   384.12385     -926.35795      2789.199       4333.4644    
     97590   388.5382      -926.39767      1383.7891      4339.1406    
     97600   393.62553     -926.42531     -285.1369       4345.4508    
     97610   379.04648     -925.87256     -1823.4747      4351.6233    
     97620   376.12291     -925.60695     -3054.3618      4356.9352    
     97630   394.89484     -925.89786     -3813.1671      4360.8078    
     97640   404.70578     -925.90691     -4061.0398      4362.8834    
     97650   411.59071     -925.83083     -4088.0317      4363.034     
     97660   401.75339     -925.31489     -3828.9249      4361.2569    
     97670   369.37758     -924.21498     -3005.6023      4357.6972    
     97680   369.595       -924.05384     -1869.4678      4352.7452    
     97690   412.24174     -925.08354     -606.63257      4346.9401    
     97700   412.31397     -924.95342      1023.094       4340.899     
     97710   417.93209     -925.0086       2522.2409      4335.3675    
     97720   441.99837     -925.60194      3551.9924      4331.0328    
     97730   428.66011     -925.18814      4179.1985      4328.372     
     97740   396.43456     -924.27302      4335.8953      4327.667     
     97750   429.28521     -925.17939      3849.4427      4328.9728    
     97760   441.21368     -925.52223      3157.0112      4332.0793    
     97770   408.82579     -924.65286      2320.1488      4336.6621    
     97780   415.56788     -924.87697      1100.1558      4342.3173    
     97790   437.40045     -925.52741     -362.13649      4348.4783    
     97800   421.99495     -925.15414     -1776.875       4354.4675    
     97810   418.78898     -925.12983     -3256.3493      4359.604     
     97820   404.96595     -924.81811     -4405.248       4363.2018    
     97830   379.24855     -924.17653     -4833.3098      4364.7293    
     97840   386.43657     -924.44591     -4620.0523      4363.9821    
     97850   403.64747     -924.99615     -3860.1957      4361.0657    
     97860   400.5563      -924.98393     -2549.1581      4356.3557    
     97870   418.24778     -925.55188     -1164.1963      4350.4632    
     97880   426.44863     -925.86574      206.82988      4344.0516    
     97890   389.96804     -924.94113      1634.7336      4337.7743    
     97900   377.49964     -924.66982      2922.3387      4332.2934    
     97910   416.30231     -925.82095      3863.0668      4328.1968    
     97920   422.20945     -926.07223      4547.0384      4325.921     
     97930   406.79848     -925.74709      4722.4216      4325.766     
     97940   410.32306     -925.95947      4188.6353      4327.7991    
     97950   411.94772     -926.13119      3125.1992      4331.7754    
     97960   386.76629     -925.55587      1764.3077      4337.2077    
     97970   382.8176      -925.55644      99.962031      4343.4549    
     97980   374.24452     -925.40939     -1481.6925      4349.7508    
     97990   357.64982     -925.01535     -2799.0427      4355.3513    
     98000   364.89675     -925.26046     -3692.6416      4359.6365    
     98010   391.50437     -926.03219     -4173.7951      4362.1793    
     98020   389.89697     -926.01781     -4314.0337      4362.7499    
     98030   378.59957     -925.73324     -4088.1279      4361.2865    
     98040   375.61521     -925.67288     -3278.0154      4357.9136    
     98050   381.95402     -925.85933     -1923.6629      4353.025     
     98060   402.01005     -926.4146      -446.9816       4347.2548    
     98070   411.45688     -926.67036      929.72247      4341.297     
     98080   386.7088      -925.97343      2226.4982      4335.8052    
     98090   386.38372     -925.94902      3118.3502      4331.3686    
     98100   401.52025     -926.34807      3593.0124      4328.3991    
     98110   378.20337     -925.67636      3799.9324      4327.1182    
     98120   353.87577     -924.96737      3705.0212      4327.6143    
     98130   372.49765     -925.42817      3169.6344      4329.8314    
     98140   390.75419     -925.84516      2341.6264      4333.526     
     98150   390.72163     -925.72218      1319.8528      4338.3137    
     98160   392.49561     -925.61504      177.65165      4343.7193    
     98170   413.35995     -925.99856     -1057.5433      4349.2041    
     98180   398.07917     -925.34905     -2051.6175      4354.2003    
     98190   387.56511     -924.82659     -2897.1928      4358.2272    
     98200   405.56809     -925.08709     -3485.1108      4360.8877    
     98210   421.22198     -925.28973     -3698.0563      4361.9066    
     98220   418.52301     -925.01551     -3562.0872      4361.1833    
     98230   422.09071     -924.95753     -3066.9206      4358.7889    
     98240   426.57174     -924.96016     -2176.2106      4354.9661    
     98250   420.31164     -924.69571     -978.08865      4350.1426    
     98260   431.68275     -924.94459      242.15096      4344.878     
     98270   434.91632     -924.98855      1442.9767      4339.7504    
     98280   414.21975     -924.38708      2445.321       4335.3166    
     98290   419.00509     -924.50719      3080.1214      4332.0359    
     98300   414.84809     -924.39123      3421.6934      4330.2026    
     98310   391.37539     -923.74556      3594.2769      4329.9809    
     98320   425.5223      -924.70664      3254.571       4331.4281    
     98330   447.94059     -925.35833      2713.6569      4334.4027    
     98340   428.56971     -924.87221      1877.5108      4338.6472    
     98350   431.48469     -925.02227      590.22533      4343.7607    
     98360   420.76097     -924.80483     -697.4145       4349.1582    
     98370   408.53543     -924.54711     -1834.8536      4354.236     
     98380   450.57264     -925.81098     -2973.7251      4358.4449    
     98390   429.18985     -925.34054     -3686.1162      4361.2615    
     98400   359.00581     -923.50716     -3847.7332      4362.3498    
     98410   395.92315     -924.63459     -3741.8465      4361.6201    
     98420   441.70005     -926.02106     -3237.9422      4359.1325    
     98430   406.09969     -925.15813     -2219.1815      4355.14      
     98440   396.13907     -924.99886     -1113.2136      4350.1127    
     98450   415.62159     -925.65317      11.227624      4344.5767    
     98460   393.7674      -925.14887      1350.543       4339.0769    
     98470   407.73046     -925.62833      2476.6324      4334.2224    
     98480   409.51428     -925.76905      3290.4919      4330.5357    
     98490   370.30697     -924.75676      3839.6436      4328.3966    
     98500   400.05195     -925.65014      3831.5491      4328.0427    
     98510   403.46628     -925.81036      3500.7557      4329.4801    
     98520   372.89747     -925.01751      2868.1988      4332.5545    
     98530   410.74064     -926.116        1702.5354      4336.9588    
     98540   415.00455     -926.2808       527.06461      4342.1726    
     98550   364.86278     -924.9237      -486.2286       4347.6511    
     98560   404.64043     -926.05055     -1783.946       4352.892     
     98570   428.59848     -926.73663     -2932.6294      4357.2999    
     98580   368.31243     -925.08385     -3628.9258      4360.34      
     98590   368.35945     -925.09787     -4161.9932      4361.6616    
     98600   383.17019     -925.51103     -4128.0899      4361.0299    
     98610   361.09276     -924.88964     -3361.9625      4358.4711    
     98620   390.11212     -925.67761     -2366.0311      4354.3309    
     98630   402.46068     -925.99259     -1025.5235      4349.0959    
     98640   389.03579     -925.58702      515.7499       4343.4       
     98650   429.59892     -926.67997      1720.748       4337.9493    
     98660   417.42        -926.31656      2753.8587      4333.3183    
     98670   359.29747     -924.68206      3508.9339      4329.985     
     98680   396.4379      -925.68953      3598.9623      4328.2774    
     98690   408.59328     -925.999        3722.3295      4328.2689    
     98700   379.65929     -925.17359      3686.9723      4330.0067    
     98710   400.83012     -925.74098      2866.9638      4333.4488    
     98720   405.18183     -925.83888      1586.1804      4338.2293    
     98730   378.3405      -925.06756      235.45325      4343.7671    
     98740   402.1222      -925.69546     -1266.5326      4349.4191    
     98750   393.19916     -925.40708     -2454.703       4354.4963    
     98760   369.18088     -924.69739     -3310.6157      4358.4301    
     98770   377.05851     -924.86535     -3789.1286      4360.8119    
     98780   403.26265     -925.53643     -3775.6403      4361.4149    
     98790   414.11302     -925.78448     -3266.7953      4360.2479    
     98800   436.88886     -926.38043     -2627.7834      4357.5361    
     98810   400.23979     -925.34248     -1740.538       4353.5945    
     98820   373.13168     -924.57249     -635.31537      4348.8462    
     98830   424.00138     -925.96174      448.2294       4343.8061    
     98840   432.48665     -926.17871      1573.294       4338.9906    
     98850   399.13376     -925.24704      2552.8922      4334.9218    
     98860   395.47063     -925.14355      3007.0148      4332.0388    
     98870   403.65293     -925.36926      3183.7195      4330.5653    
     98880   397.49915     -925.19973      3206.2713      4330.5878    
     98890   387.84772     -924.93387      2845.2747      4332.1053    
     98900   391.49867     -925.03486      2144.6355      4334.9541    
     98910   391.89492     -925.04134      1326.2285      4338.8188    
     98920   387.72686     -924.91688      376.26057      4343.3153    
     98930   390.08418     -924.96702     -565.52095      4348.0041    
     98940   416.2349      -925.67626     -1444.5608      4352.4416    
     98950   420.04504     -925.77105     -2256.5668      4356.2104    
     98960   417.58014     -925.7029      -3007.8866      4358.9198    
     98970   423.95854     -925.89352     -3374.3935      4360.2234    
     98980   402.9542      -925.33396     -3192.103       4359.9507    
     98990   399.82647     -925.27402     -2761.7419      4358.1735    
     99000   426.19279     -926.03858     -2200.894       4355.092     
     99010   403.34369     -925.44314     -1369.6977      4350.9824    
     99020   383.22857     -924.9199      -465.19391      4346.2303    
     99030   400.21112     -925.4208       523.38146      4341.2661    
     99040   366.10296     -924.49019      1713.2194      4336.5633    
     99050   367.84775     -924.53916      2645.0286      4332.6593    
     99060   411.34872     -925.73661      3248.3192      4329.9884    
     99070   400.62807     -925.4284       3762.788       4328.8445    
     99080   405.09567     -925.5491       3737.6812      4329.4503    
     99090   426.15612     -926.14108      3052.8266      4331.7916    
     99100   378.71284     -924.8351       2239.2875      4335.5793    
     99110   402.07695     -925.49317      1001.3896      4340.4197    
     99120   436.98369     -926.47181     -256.16902      4345.7532    
     99130   372.8332      -924.70355     -1096.2959      4351.008     
     99140   376.36243     -924.8059      -2130.9791      4355.755     
     99150   454.37009     -926.97414     -3242.7265      4359.5026    
     99160   411.82577     -925.81257     -3633.1983      4361.7549    
     99170   376.07545     -924.85205     -3771.505       4362.2952    
     99180   412.56881     -925.90453     -3763.7335      4361.0475    
     99190   385.76838     -925.20377     -3065.2313      4358.0408    
     99200   380.6851      -925.10615     -2129.4954      4353.5847    
     99210   402.05897     -925.74247     -1060.3015      4348.1208    
     99220   356.83364     -924.51935      463.96059      4342.1752    
     99230   373.18554     -924.98911      1821.2172      4336.4384    
     99240   422.68509     -926.37186      2953.931       4331.5478    
     99250   372.54785     -924.9865       4097.3481      4328.048     
     99260   386.69717     -925.38628      4452.937       4326.4372    
     99270   441.60907     -926.92404      4095.2455      4326.8886    
     99280   395.7661      -925.68131      3659.4247      4329.2704    
     99290   375.30249     -925.14785      2749.1527      4333.3685    
     99300   427.44431     -926.63194      1292.0675      4338.7596    
     99310   395.57446     -925.78563      66.044344      4344.8034    
     99320   376.03948     -925.2791      -1197.6772      4350.9083    
     99330   406.6355      -926.15941     -2621.0939      4356.4684    
     99340   389.98179     -925.72632     -3662.2247      4360.8275    
     99350   379.19565     -925.45599     -4394.7085      4363.4748    
     99360   389.07797     -925.76063     -4813.4027      4364.0488    
     99370   362.71369     -925.0553      -4447.0401      4362.366     
     99380   360.71552     -925.01588     -3570.2209      4358.5815    
     99390   388.27008     -925.78094     -2286.1004      4353.109     
     99400   382.52682     -925.60364     -572.04561      4346.5635    
     99410   390.92397     -925.80268      1196.5206      4339.7423    
     99420   418.1551      -926.51152      2682.6658      4333.466     
     99430   393.65093     -925.78075      3941.7142      4328.4372    
     99440   373.2934      -925.1642       4751.246       4325.2353    
     99450   401.21342     -925.88089      4874.6678      4324.2305    
     99460   419.52055     -926.32738      4537.023       4325.4971    
     99470   399.23625     -925.70973      3845.1853      4328.8924    
     99480   397.39216     -925.60615      2602.7997      4334.0965    
     99490   412.96556     -925.97772      974.6547       4340.5454    
     99500   397.23346     -925.47148     -662.33602      4347.4977    
     99510   375.07301     -924.77778     -2293.4061      4354.1781    
     99520   383.02017     -924.90253     -3641.0507      4359.8195    
     99530   394.21137     -925.10036     -4369.5268      4363.7831    
     99540   382.32187     -924.64993     -4523.6382      4365.7074    
     99550   404.50269     -925.14211     -4511.5543      4365.4876    
     99560   425.70261     -925.60195     -4096.92        4363.1325    
     99570   414.72525     -925.17977     -3048.255       4358.846     
     99580   419.64998     -925.21062     -1626.9646      4353.1138    
     99590   411.34417     -924.87781     -24.522803      4346.6052    
     99600   412.83982     -924.82058      1497.1088      4340.0681    
     99610   434.49583     -925.32612      2827.7838      4334.2167    
     99620   438.34003     -925.35133      3952.4276      4329.6774    
     99630   421.17389     -924.81656      4686.0245      4326.9722    
     99640   439.95085     -925.30435      4637.2379      4326.4313    
     99650   426.48123     -924.92161      4076.5119      4328.0528    
     99660   383.86163     -923.74413      3229.63        4331.5976    
     99670   406.13123     -924.36956      1913.8464      4336.67      
     99680   411.30539     -924.51564      640.39534      4342.6888    
     99690   405.86299     -924.36712     -676.78926      4349.0532    
     99700   434.60307     -925.17211     -2057.4598      4355.1402    
     99710   441.94943     -925.4001      -3205.72        4360.3025    
     99720   427.23604     -925.04387     -4006.6372      4363.9862    
     99730   422.57598     -924.9966      -4465.3403      4365.7964    
     99740   408.10528     -924.70787     -4512.5532      4365.5022    
     99750   383.38007     -924.15163     -4010.8381      4363.0777    
     99760   416.00895     -925.21148     -3114.411       4358.7453    
     99770   426.48205     -925.6924      -1678.3247      4352.9379    
     99780   418.72914     -925.69531     -99.83881       4346.3188    
     99790   408.44005     -925.64618      1323.1076      4339.6245    
     99800   374.41733     -924.92178      2536.5193      4333.5239    
     99810   376.93637     -925.17862      3529.0892      4328.5884    
     99820   407.52029     -926.20054      4262.3008      4325.2828    
     99830   375.96758     -925.474        4799.8161      4323.9612    
     99840   366.93423     -925.33516      4681.0509      4324.8645    
     99850   409.35261     -926.60973      3818.7838      4327.9482    
     99860   386.02844     -926.04418      2776.4476      4332.8542    
     99870   368.64035     -925.61894      1343.6916      4339.0983    
     99880   405.54325     -926.68147     -521.63506      4346.015     
     99890   379.26731     -925.97289     -2107.7075      4352.759     
     99900   344.51253     -925.00736     -3323.9959      4358.5739    
     99910   389.42572     -926.23624     -4333.4449      4362.8587    
     99920   402.82504     -926.58262     -4733.9594      4365.1348    
     99930   387.82717     -926.14706     -4640.1986      4365.187     
     99940   391.55492     -926.23645     -4273.4139      4363.0341    
     99950   362.12521     -925.40146     -3373.07        4358.8523    
     99960   345.74159     -924.91358     -1984.6995      4353.0623    
     99970   395.57889     -926.24052     -596.45667      4346.2969    
     99980   388.84336     -925.97582      974.74429      4339.2234    
     99990   362.92587     -925.16991      2662.3572      4332.5821    
    100000   412.40887     -926.44389      3952.9942      4327.1436    
Loop time of 11.7478 on 1 procs for 50000 steps with 216 atoms

Performance: 367.727 ns/day, 0.065 hours/ns, 4256.104 timesteps/s, 919.318 katom-step/s
99.2% CPU use with 1 MPI tasks x 1 OpenMP threads

MPI task timing breakdown:
Section |  min time  |  avg time  |  max time  |%varavg| %total
---------------------------------------------------------------
Pair    | 11.182     | 11.182     | 11.182     |   0.0 | 95.19
Neigh   | 0          | 0          | 0          |   0.0 |  0.00
Comm    | 0.14038    | 0.14038    | 0.14038    |   0.0 |  1.19
Output  | 0.039212   | 0.039212   | 0.039212   |   0.0 |  0.33
Modify  | 0.35062    | 0.35062    | 0.35062    |   0.0 |  2.98
Other   |            | 0.03536    |            |       |  0.30

Nlocal:            216 ave         216 max         216 min
Histogram: 1 0 0 0 0 0 0 0 0 0
Nghost:            950 ave         950 max         950 min
Histogram: 1 0 0 0 0 0 0 0 0 0
Neighs:              0 ave           0 max           0 min
Histogram: 1 0 0 0 0 0 0 0 0 0
FullNghs:         7514 ave        7514 max        7514 min
Histogram: 1 0 0 0 0 0 0 0 0 0

Total # of neighbors = 7514
Ave neighs/atom = 34.787037
Neighbor list builds = 0
Dangerous builds = 0

print "Lattice parameter simulation completed for Si at ${temperature} K."
Lattice parameter simulation completed for Si at 400 K.
Total wall time: 0:00:28
